     Program PWSCF v.7.2 starts on 26Jul2023 at 11:17:38
        Git branch: heads/qe-7.2
        Last git commit: b4c5e8deeb7d1863e7553a87b45f8d22c21926a5
        Last git commit date: Mon Mar 27 16:12:09 2023 +0000
        Last git commit subject: Merge branch 'merge_fix_hubbard' into 'develop'

     Reading input from RuO2-110-0-24.in

     Current dimensions of program PWSCF are:
     Max number of different atomic species (ntypx) = 10
     Max number of k-points (npk) =  40000
     Max angular momentum in pseudopotentials (lmaxx) =  4

     Reading input from environ.in:
     * Environ restarting
     * setting up water environment
     * using electronic solvent mode
     * setting boundary derivatives method to SCCS default

     file O.pbe-n-kjpaw_psl.0.1.UPF: wavefunction(s)  2P renormalized
     Message from routine setup:
     using ibrav=0 with symmetry is DISCOURAGED, use correct ibrav instead

     R & G space division:  proc/nbgrp/npool/nimage =      20
     Subspace diagonalization in iterative solution of the eigenvalue problem:
     one sub-group per band group will be used

     Using Slab Decomposition

     bravais-lattice index     =            0
     lattice parameter (alat)  =      12.3824  a.u.
     unit-cell volume          =    5825.9133 (a.u.)^3
     number of atoms/cell      =           44
     number of atomic types    =            3
     number of electrons       =       364.00
     number of Kohn-Sham states=          218
     kinetic-energy cutoff     =      50.0000  Ry
     charge density cutoff     =     500.0000  Ry
     scf convergence threshold =      1.0E-09
     mixing beta               =       0.7000
     number of iterations used =            8  local-TF  mixing
     energy convergence thresh.=      1.0E-04
     force convergence thresh. =      1.0E-04
     Exchange-correlation= PBE
                           (   1   4   3   4   0   0   0)
     nstep                     =          200

                                  Environ Setup Summary

          O. Andreussi, I. Dabo and N. Marzari, J. Chem. Phys. 136, 064102 (2012)

     in publications or presentations arising from this work.

     Parameters

     compensation onset threshold      =               0.1000E+00
     static permittivity               =                    78.30
     surface tension in input (dyn/cm) =                    47.90
     surface tension in internal units =               0.6153E-04
     external pressure in input (GPa)  =                    -0.36
     external pressure in inter. units =              -0.2447E-04

     Solvent Boundary

     solvent mode                      =               electronic
     derivatives method                =                    chain
     numerical core for derivatives    =                      fft
     switching function adopted        =                     SCCS
     density limit for vacuum region   =               0.5000E-02
     density limit for bulk solvent    =               0.1000E-03

     Electrostatic Setup

     electrostatic problem to solve    =              generalized
     numerical solver adopted          =                       cg
     type of auxiliary density adopted =                     none
     numerical core for poisson        =                      fft
     type of pbc corrections           =                parabolic
     numerical core for corrections    =                      1da

     celldm(1)=  12.382447  celldm(2)=   0.000000  celldm(3)=   0.000000
     celldm(4)=   0.000000  celldm(5)=   0.000000  celldm(6)=   0.000000

     crystal axes: (cart. coord. in units of alat)
               a(1) = (   1.000000   0.000000   0.000000 )
               a(2) = (   0.000000   0.908473   0.000000 )
               a(3) = (   0.000000   0.000000   3.377790 )

     reciprocal axes: (cart. coord. in units 2 pi/alat)
               b(1) = (  1.000000  0.000000  0.000000 )
               b(2) = (  0.000000  1.100748  0.000000 )
               b(3) = (  0.000000  0.000000  0.296052 )

     PseudoPot. # 1 for O  read from file:
     /gpfs/group/ixd4/default/Simon/pseudopotentials/materialscloud/SSSP_1.3.0_PBE_efficiency/O.pbe-n-kjpaw_psl.0.1.UPF
     MD5 check sum: 0234752ac141de4415c5fc33072bef88
     Pseudo is Projector augmented-wave + core cor, Zval =  6.0
     Generated using "atomic" code by A. Dal Corso  v.5.0.99 svn rev. 10869
     Shape of augmentation charge: BESSEL
     Using radial grid of 1095 points,  4 beta functions with:
                l(1) =   0
                l(2) =   0
                l(3) =   1
                l(4) =   1
     Q(r) pseudized with 0 coefficients

     PseudoPot. # 2 for Ru read from file:
     /gpfs/group/ixd4/default/Simon/pseudopotentials/materialscloud/SSSP_1.3.0_PBE_efficiency/Ru_ONCV_PBE-1.0.oncvpsp.upf
     MD5 check sum: be037bb81c227cfb9b1461a9f099f4bd
     Pseudo is Norm-conserving, Zval = 16.0
     Generated using ONCVPSP code by D. R. Hamann
     Using radial grid of 1458 points,  6 beta functions with:
                l(1) =   0
                l(2) =   0
                l(3) =   1
                l(4) =   1
                l(5) =   2
                l(6) =   2

     PseudoPot. # 3 for H  read from file:
     /gpfs/group/ixd4/default/Simon/pseudopotentials/materialscloud/SSSP_1.3.0_PBE_efficiency/H.pbe-rrkjus_psl.1.0.0.UPF
     MD5 check sum: f52b6d4d1c606e5624b1dc7b2218f220
     Pseudo is Ultrasoft, Zval =  1.0
     Generated using "atomic" code by A. Dal Corso  v.5.1
     Using radial grid of  929 points,  2 beta functions with:
                l(1) =   0
                l(2) =   0
     Q(r) pseudized with 0 coefficients

     atomic species   valence    mass     pseudopotential
        O              6.00    15.99940     O ( 1.00)
        Ru            16.00   101.07000     Ru( 1.00)
        H              1.00     1.00794     H ( 1.00)

      8 Sym. Ops., with inversion, found

   Cartesian axes

     site n.     atom                  positions (alat units)
         1           O   tau(   1) = (   0.0000000   0.4542364   0.9269989  )
         2           O   tau(   2) = (   0.5000000   0.4542364   0.9230426  )
         3           O   tau(   3) = (   0.0000000   0.0000000   0.9824139  )
         4           O   tau(   4) = (   0.5000000   0.0000000   1.0372617  )
         5           Ru  tau(   5) = (   0.2637543   0.0000000   1.2102284  )
         6           Ru  tau(   6) = (   0.7362457   0.0000000   1.2102284  )
         7           O   tau(   7) = (   0.2497652   0.2839472   1.2128694  )
         8           O   tau(   8) = (   0.7502348   0.2839472   1.2128694  )
         9           Ru  tau(   9) = (   0.0000000   0.4542364   1.1968856  )
        10           Ru  tau(  10) = (   0.5000000   0.4542364   1.1866481  )
        11           O   tau(  11) = (   0.2497652   0.6245257   1.2128694  )
        12           O   tau(  12) = (   0.7502348   0.6245257   1.2128694  )
        13           O   tau(  13) = (   0.0000000   0.0000000   1.3880420  )
        14           O   tau(  14) = (   0.5000000   0.0000000   1.3920693  )
        15           O   tau(  15) = (   0.0000000   0.4542364   1.5046056  )
        16           O   tau(  16) = (   0.5000000   0.4542364   1.5027900  )
        17           Ru  tau(  17) = (   0.0000000   0.0000000   1.6888985  )
        18           Ru  tau(  18) = (   0.5000000   0.0000000   1.6888985  )
        19           O   tau(  19) = (   0.2491165   0.1690823   1.6888985  )
        20           O   tau(  20) = (   0.7508835   0.1690823   1.6888985  )
        21           Ru  tau(  21) = (   0.2515136   0.4542364   1.6888985  )
        22           Ru  tau(  22) = (   0.7484864   0.4542364   1.6888985  )
        23           O   tau(  23) = (   0.2491165   0.7393915   1.6888985  )
        24           O   tau(  24) = (   0.7508835   0.7393915   1.6888985  )
        25           O   tau(  25) = (   0.0000000   0.4542364   1.8731881  )
        26           O   tau(  26) = (   0.5000000   0.4542364   1.8750037  )
        27           O   tau(  27) = (   0.0000000   0.0000000   1.9897517  )
        28           O   tau(  28) = (   0.5000000   0.0000000   1.9857244  )
        29           Ru  tau(  29) = (   0.2637543   0.0000000   2.1675653  )
        30           Ru  tau(  30) = (   0.7362457   0.0000000   2.1675653  )
        31           O   tau(  31) = (   0.2497652   0.2839472   2.1649243  )
        32           O   tau(  32) = (   0.7502348   0.2839472   2.1649243  )
        33           Ru  tau(  33) = (   0.0000000   0.4542364   2.1809081  )
        34           Ru  tau(  34) = (   0.5000000   0.4542364   2.1911456  )
        35           O   tau(  35) = (   0.2497652   0.6245257   2.1649243  )
        36           O   tau(  36) = (   0.7502348   0.6245257   2.1649243  )
        37           O   tau(  37) = (   0.0000000   0.0000000   2.3953831  )
        38           O   tau(  38) = (   0.5000000   0.0000000   2.3405353  )
        39           O   tau(  39) = (   0.0000000   0.4542364   2.4507948  )
        40           O   tau(  40) = (   0.5000000   0.4542364   2.4547511  )
        41           H   tau(  41) = (   0.0000000   0.1207136   0.8910903  )
        42           H   tau(  42) = (   0.0000000   0.1207136   2.4867000  )
        43           H   tau(  43) = (   0.0000000   0.7877593   0.8910903  )
        44           H   tau(  44) = (   0.0000000   0.7877593   2.4867000  )

     number of k points=     1  Marzari-Vanderbilt smearing, width (Ry)=  0.0300
                       cart. coord. in units 2pi/alat
        k(    1) = (   0.2500000   0.2751871   0.0000000), wk =   2.0000000

     Check: negative core charge=   -0.000001

     Initial potential from superposition of free atoms

     starting charge     363.9933, renormalised to     364.0000

     add environment contribution to local potential
     Polarization accuracy = 1.0E-12, # of iterations =  23

     negative rho (up, down):  3.582E-05 0.000E+00
     Starting wfcs are  236 randomized atomic wfcs
     Checking if some PAW data can be deallocated...

     Self-consistent Calculation

     iteration #  1     ecut=    50.00 Ry     beta= 0.70
     Davidson diagonalization with overlap
     ethr =  1.00E-02,  avg # of iterations =  2.0

     total energy              =   -3429.92144543 Ry
     estimated scf accuracy    <      10.45730580 Ry
     electrostatic embedding   =      -0.00161853 Ry
     cavitation energy         =       0.01940079 Ry
     PV energy                 =      -0.08281546 Ry
     correction to one-el term =     218.11592280 Ry

[...]

     negative rho (up, down):  2.163E-05 0.000E+00

[...]

     the potential shift due to the Gaussian-smeared nuclei is    -1.3353 ev

     End of self-consistent calculation

          k = 0.2500 0.2752 0.0000 ( 34780 PWs)   bands (ev):

   -78.0271 -78.0148 -78.0137 -78.0016 -77.3734 -77.3673 -77.3605 -77.3544
   -77.2100 -77.1447 -77.1417 -77.1393 -48.5280 -48.5146 -48.3722 -48.3590
   -48.0800 -48.0667 -47.9800 -47.9666 -47.7281 -47.7151 -47.7070 -47.6941
   -47.6393 -47.6261 -47.5993 -47.5859 -47.5100 -47.5072 -47.3931 -47.3767
   -47.3532 -47.3370 -47.2924 -47.2761 -47.2633 -47.2014 -47.1883 -47.1845
[...]
     atom    8 type  1   force =    -0.88295236    0.50797399   62.80134154
     atom    9 type  2   force =    -0.00000000    0.00000000  171.44580778
     atom   10 type  2   force =     0.00000000    0.00000000  174.95735040
     atom   11 type  1   force =     0.88295236   -0.50797399   62.80134154
     atom   12 type  1   force =    -0.88295236   -0.50797399   62.80134154
     atom   13 type  1   force =    -0.00000000    0.00000000   40.57786338
     atom   14 type  1   force =    -0.00000000    0.00000000   37.15689683
     atom   15 type  1   force =     0.00000000    0.00000000   26.28982623
     atom   16 type  1   force =     0.00000000    0.00000000   27.06098864
     atom   17 type  2   force =    -0.00000000    0.00000000   -0.00591015
     atom   18 type  2   force =     0.00000000    0.00000000   -0.00582190
     atom   19 type  1   force =     0.29797153   -0.77829218   -0.00246906
     atom   20 type  1   force =    -0.29797153   -0.77829218   -0.00246906
     atom   21 type  2   force =     0.49466765   -0.00000000   -0.00607020
     atom   22 type  2   force =    -0.49466765   -0.00000000   -0.00607020
     atom   23 type  1   force =     0.29797059    0.77794383   -0.00246906
     atom   24 type  1   force =    -0.29797059    0.77794383   -0.00246906
     atom   25 type  1   force =    -0.00000000    0.00000000  -26.29161718
     atom   26 type  1   force =     0.00000000    0.00000000  -27.06279394
     atom   27 type  1   force =     0.00000000    0.00000000  -40.57968438
     atom   28 type  1   force =     0.00000000    0.00000000  -37.15863799
     atom   29 type  2   force =     6.79678800    0.00000000 -172.53583372
     atom   30 type  2   force =    -6.79678800   -0.00000000 -172.53583372
     atom   31 type  1   force =     0.88296154    0.50800448  -62.80379770
     atom   32 type  1   force =    -0.88296154    0.50800448  -62.80379770
     atom   33 type  2   force =    -0.00000000    0.00000000 -171.45156936
     atom   34 type  2   force =     0.00000000    0.00000000 -174.96314612
     atom   35 type  1   force =     0.88296154   -0.50800448  -62.80379770
     atom   36 type  1   force =    -0.88296154   -0.50800448  -62.80379770
     atom   37 type  1   force =    -0.00000000    0.00000000  -90.83420144
     atom   38 type  1   force =     0.00000000    0.00000000  -94.64667163
     atom   39 type  1   force =    -0.00000000    0.00000000  -99.23275167
     atom   40 type  1   force =    -0.00000000   -0.00000000 -100.49323614
     atom   41 type  3   force =    -0.00000000   -2.17033463   17.08507476
     atom   42 type  3   force =    -0.00000000   -2.17033463  -17.08507476
     atom   43 type  3   force =     0.00000000    2.17033463   17.08507476
     atom   44 type  3   force =     0.00000000    2.17033463  -17.08507476
     The core correction contribution to forces
     atom    1 type  1   force =     0.00000000   -0.00000000   -0.01055065
     atom    2 type  1   force =    -0.00000000    0.00000000   -0.01069326
     atom    3 type  1   force =    -0.00000000   -0.00000000    0.01372523
     atom    4 type  1   force =    -0.00000000   -0.00000000   -0.01214837
     atom    5 type  2   force =     0.00000000    0.00000000    0.00000000
     atom    6 type  2   force =     0.00000000    0.00000000    0.00000000
     atom    7 type  1   force =    -0.00026984   -0.00007098    0.00132218
     atom    8 type  1   force =     0.00026984   -0.00007098    0.00132218
     atom    9 type  2   force =     0.00000000    0.00000000    0.00000000
     atom   10 type  2   force =     0.00000000    0.00000000    0.00000000
     atom   11 type  1   force =    -0.00026984    0.00007098    0.00132218
     atom   12 type  1   force =     0.00026984    0.00007098    0.00132218
     atom   13 type  1   force =    -0.00000000   -0.00000000   -0.00151866
     atom   14 type  1   force =    -0.00000000    0.00000000    0.00242406
     atom   15 type  1   force =    -0.00000000   -0.00000000   -0.00157807
     atom   16 type  1   force =     0.00000000    0.00000000   -0.00248196
     atom   17 type  2   force =     0.00000000    0.00000000    0.00000000
     atom   18 type  2   force =     0.00000000    0.00000000    0.00000000
     atom   19 type  1   force =    -0.00019292   -0.00033852   -0.00000206
     atom   20 type  1   force =     0.00019292   -0.00033852   -0.00000206
     atom   21 type  2   force =     0.00000000    0.00000000    0.00000000
     atom   22 type  2   force =     0.00000000    0.00000000    0.00000000
     atom   23 type  1   force =    -0.00019292    0.00033800   -0.00000206
     atom   24 type  1   force =     0.00019292    0.00033800   -0.00000206
     atom   25 type  1   force =     0.00000000   -0.00000000    0.00157602
     atom   26 type  1   force =    -0.00000000   -0.00000000    0.00247987
     atom   27 type  1   force =     0.00000000   -0.00000000    0.00151640
     atom   28 type  1   force =     0.00000000    0.00000000   -0.00242636
     atom   29 type  2   force =     0.00000000    0.00000000    0.00000000
     atom   30 type  2   force =     0.00000000    0.00000000    0.00000000
     atom   31 type  1   force =    -0.00026976   -0.00007092   -0.00132374
     atom   32 type  1   force =     0.00026976   -0.00007092   -0.00132374
     atom   33 type  2   force =     0.00000000    0.00000000    0.00000000
     atom   34 type  2   force =     0.00000000    0.00000000    0.00000000
     atom   35 type  1   force =    -0.00026976    0.00007092   -0.00132374
     atom   36 type  1   force =     0.00026976    0.00007092   -0.00132374
     atom   37 type  1   force =    -0.00000000   -0.00000000   -0.01372892
     atom   38 type  1   force =     0.00000000    0.00000000    0.01214462
     atom   39 type  1   force =     0.00000000   -0.00000000    0.01054863
     atom   40 type  1   force =     0.00000000    0.00000000    0.01069141
     atom   41 type  3   force =     0.00000000    0.00000000    0.00000000
     atom   42 type  3   force =     0.00000000    0.00000000    0.00000000
     atom   43 type  3   force =     0.00000000    0.00000000    0.00000000
     atom   44 type  3   force =     0.00000000    0.00000000    0.00000000
     The Hubbard contrib.    to forces
     atom    1 type  1   force =     0.00000000    0.00000000    0.00000000
     atom    2 type  1   force =     0.00000000    0.00000000    0.00000000
     atom    3 type  1   force =     0.00000000    0.00000000    0.00000000
     atom    4 type  1   force =     0.00000000    0.00000000    0.00000000
     atom    5 type  2   force =     0.00000000    0.00000000    0.00000000
     atom    6 type  2   force =     0.00000000    0.00000000    0.00000000
     atom    7 type  1   force =     0.00000000    0.00000000    0.00000000
     atom    8 type  1   force =     0.00000000    0.00000000    0.00000000
     atom    9 type  2   force =     0.00000000    0.00000000    0.00000000
     atom   10 type  2   force =     0.00000000    0.00000000    0.00000000
     atom   11 type  1   force =     0.00000000    0.00000000    0.00000000
     atom   12 type  1   force =     0.00000000    0.00000000    0.00000000
     atom   13 type  1   force =     0.00000000    0.00000000    0.00000000
     atom   14 type  1   force =     0.00000000    0.00000000    0.00000000
     atom   15 type  1   force =     0.00000000    0.00000000    0.00000000
     atom   16 type  1   force =     0.00000000    0.00000000    0.00000000
     atom   17 type  2   force =     0.00000000    0.00000000    0.00000000
     atom   18 type  2   force =     0.00000000    0.00000000    0.00000000
     atom   19 type  1   force =     0.00000000    0.00000000    0.00000000
     atom   20 type  1   force =     0.00000000    0.00000000    0.00000000
     atom   21 type  2   force =     0.00000000    0.00000000    0.00000000
     atom   22 type  2   force =     0.00000000    0.00000000    0.00000000
     atom   23 type  1   force =     0.00000000    0.00000000    0.00000000
     atom   24 type  1   force =     0.00000000    0.00000000    0.00000000
     atom   25 type  1   force =     0.00000000    0.00000000    0.00000000
     atom   26 type  1   force =     0.00000000    0.00000000    0.00000000
     atom   27 type  1   force =     0.00000000    0.00000000    0.00000000
     atom   28 type  1   force =     0.00000000    0.00000000    0.00000000
     atom   29 type  2   force =     0.00000000    0.00000000    0.00000000
     atom   30 type  2   force =     0.00000000    0.00000000    0.00000000
     atom   31 type  1   force =     0.00000000    0.00000000    0.00000000
     atom   32 type  1   force =     0.00000000    0.00000000    0.00000000
     atom   33 type  2   force =     0.00000000    0.00000000    0.00000000
     atom   34 type  2   force =     0.00000000    0.00000000    0.00000000
     atom   35 type  1   force =     0.00000000    0.00000000    0.00000000
     atom   36 type  1   force =     0.00000000    0.00000000    0.00000000
     atom   37 type  1   force =     0.00000000    0.00000000    0.00000000
     atom   38 type  1   force =     0.00000000    0.00000000    0.00000000
     atom   39 type  1   force =     0.00000000    0.00000000    0.00000000
     atom   40 type  1   force =     0.00000000    0.00000000    0.00000000
     atom   41 type  3   force =     0.00000000    0.00000000    0.00000000
     atom   42 type  3   force =     0.00000000    0.00000000    0.00000000
     atom   43 type  3   force =     0.00000000    0.00000000    0.00000000
     atom   44 type  3   force =     0.00000000    0.00000000    0.00000000
     The SCF correction term to forces
     atom    1 type  1   force =     0.00000000    0.00000000    0.00000093
     atom    2 type  1   force =    -0.00000000    0.00000000    0.00000182
     atom    3 type  1   force =     0.00000000    0.00000000   -0.00000065
     atom    4 type  1   force =     0.00000000   -0.00000000    0.00000019
     atom    5 type  2   force =    -0.00000173   -0.00000000    0.00000251
     atom    6 type  2   force =     0.00000173   -0.00000000    0.00000251
     atom    7 type  1   force =     0.00000005    0.00000060    0.00000066
     atom    8 type  1   force =    -0.00000005    0.00000060    0.00000066
     atom    9 type  2   force =     0.00000000    0.00000000    0.00000079
     atom   10 type  2   force =     0.00000000    0.00000000    0.00000037
     atom   11 type  1   force =     0.00000005   -0.00000060    0.00000066
     atom   12 type  1   force =    -0.00000005   -0.00000060    0.00000066
     atom   13 type  1   force =     0.00000000    0.00000000    0.00000089
     atom   14 type  1   force =    -0.00000000   -0.00000000    0.00000175
     atom   15 type  1   force =    -0.00000000    0.00000000    0.00000022
     atom   16 type  1   force =     0.00000000   -0.00000000   -0.00000016
     atom   17 type  2   force =     0.00000000   -0.00000000    0.00000004
     atom   18 type  2   force =     0.00000000    0.00000000    0.00000004
     atom   19 type  1   force =     0.00000039   -0.00000072    0.00000002
     atom   20 type  1   force =    -0.00000039   -0.00000072    0.00000002
     atom   21 type  2   force =     0.00000007    0.00000000    0.00000004
     atom   22 type  2   force =    -0.00000007    0.00000000    0.00000004
     atom   23 type  1   force =     0.00000039    0.00000072    0.00000002
     atom   24 type  1   force =    -0.00000039    0.00000072    0.00000002
     atom   25 type  1   force =     0.00000000    0.00000000   -0.00000020
     atom   26 type  1   force =     0.00000000   -0.00000000    0.00000018
     atom   27 type  1   force =     0.00000000   -0.00000000   -0.00000087
     atom   28 type  1   force =     0.00000000    0.00000000   -0.00000173
     atom   29 type  2   force =    -0.00000172   -0.00000000   -0.00000250
     atom   30 type  2   force =     0.00000172   -0.00000000   -0.00000250
     atom   31 type  1   force =     0.00000005    0.00000060   -0.00000066
     atom   32 type  1   force =    -0.00000005    0.00000060   -0.00000066
     atom   33 type  2   force =    -0.00000000    0.00000000   -0.00000077
     atom   34 type  2   force =    -0.00000000    0.00000000   -0.00000036
     atom   35 type  1   force =     0.00000005   -0.00000060   -0.00000066
     atom   36 type  1   force =    -0.00000005   -0.00000060   -0.00000066
     atom   37 type  1   force =     0.00000000    0.00000000    0.00000065
     atom   38 type  1   force =     0.00000000    0.00000000   -0.00000019
     atom   39 type  1   force =     0.00000000   -0.00000000   -0.00000093
     atom   40 type  1   force =    -0.00000000   -0.00000000   -0.00000183
     atom   41 type  3   force =     0.00000000   -0.00000009    0.00000011
     atom   42 type  3   force =     0.00000000   -0.00000009   -0.00000011
     atom   43 type  3   force =    -0.00000000    0.00000009    0.00000011
     atom   44 type  3   force =     0.00000000    0.00000009   -0.00000011

     Total force =     0.000261     Total SCF correction =     0.000008
     Energy error            =      3.3E-08 Ry
     Gradient error          =      6.8E-05 Ry/Bohr

     bfgs converged in   9 scf cycles and   8 bfgs steps
     (criteria: energy <  1.0E-04 Ry, force <  1.0E-04 Ry/Bohr)

     End of BFGS Geometry Optimization

     Final energy             =   -3432.5141242570 Ry

     File /storage/home/mgm6007/ixd4/Maria/StrainJin_Files/RuO2-110-0-24/RuO2-110-0-24.bfgs deleted, as requested
Begin final coordinates

ATOMIC_POSITIONS (crystal)
O             0.0000000000        0.5000000000        0.2745010241
O             0.5000000000        0.5000000000        0.2732848401
O             0.0000000000        0.0000000000        0.2908805196
O             0.5000000000        0.0000000000        0.3072042803
Ru            0.2635632103        0.0000000000        0.3583526932
Ru            0.7364367897       -0.0000000000        0.3583526932
O             0.2498528862        0.3122792408        0.3590510369
O             0.7501471138        0.3122792408        0.3590510369
Ru            0.0000000000        0.5000000000        0.3543430292
Ru            0.5000000000        0.5000000000        0.3513142240
O             0.2498528862        0.6877207592        0.3590510369
O             0.7501471138        0.6877207592        0.3590510369
O             0.0000000000        0.0000000000        0.4109535814
O             0.5000000000        0.0000000000        0.4121729049
O             0.0000000000        0.5000000000        0.4454267280
O             0.5000000000        0.5000000000        0.4449221503
Ru            0.0000000000        0.0000000000        0.5000010000
Ru            0.5000000000        0.0000000000        0.5000010000
O             0.2490974705        0.1863714359        0.5000010000
O             0.7509025295        0.1863714359        0.5000010000
Ru            0.2515244673        0.5000000000        0.5000010000
Ru            0.7484755327        0.5000000000        0.5000010000
O             0.2490974705        0.8136295641        0.5000010000
O             0.7509025295        0.8136295641        0.5000010000
O             0.0000000000        0.5000000000        0.5545742720
O             0.5000000000        0.5000000000        0.5550788497
O             0.0000000000        0.0000000000        0.5890474186
O             0.5000000000        0.0000000000        0.5878280951
Ru            0.2635632103       -0.0000000000        0.6416483068
Ru            0.7364367897        0.0000000000        0.6416483068
O             0.2498528862        0.3122792408        0.6409499631
O             0.7501471138        0.3122792408        0.6409499631
Ru            0.0000000000        0.5000000000        0.6456579708
Ru            0.5000000000        0.5000000000        0.6486867760
O             0.2498528862        0.6877207592        0.6409499631
O             0.7501471138        0.6877207592        0.6409499631
O             0.0000000000        0.0000000000        0.7091214804
O             0.5000000000        0.0000000000        0.6927977197
O             0.0000000000        0.5000000000        0.7254999759
O             0.5000000000        0.5000000000        0.7267161599
H             0.0000000000        0.1322822325        0.2638201511
H             0.0000000000        0.1322822325        0.7361798489
H             0.0000000000        0.8677177675        0.2638201511
H             0.0000000000        0.8677177675        0.7361798489
End final coordinates

     Writing all to output data dir /storage/home/mgm6007/ixd4/Maria/StrainJin_Files/RuO2-110-0-24/RuO2-110-0-24.save/

     General routines

     Parallel routines

     Environ routines

   This run was terminated on:  20:54:19  26Jul2023

   JOB DONE.