     Program PWSCF v.7.2 starts on 26Jul2023 at 11:20:48
        Git branch: heads/qe-7.2
        Last git commit: b4c5e8deeb7d1863e7553a87b45f8d22c21926a5
        Last git commit date: Mon Mar 27 16:12:09 2023 +0000
        Last git commit subject: Merge branch 'merge_fix_hubbard' into 'develop'

     Reading input from RuO2-110-0-0124.in

     Current dimensions of program PWSCF are:
     Max number of different atomic species (ntypx) = 10
     Max number of k-points (npk) =  40000
     Max angular momentum in pseudopotentials (lmaxx) =  4

     Reading input from environ.in:
     * Environ restarting
     * setting up water environment
     * using electronic solvent mode
     * setting boundary derivatives method to SCCS default

     file O.pbe-n-kjpaw_psl.0.1.UPF: wavefunction(s)  2P renormalized
     Message from routine setup:
     using ibrav=0 with symmetry is DISCOURAGED, use correct ibrav instead

     R & G space division:  proc/nbgrp/npool/nimage =      20
     Subspace diagonalization in iterative solution of the eigenvalue problem:
     one sub-group per band group will be used

     Using Slab Decomposition

     bravais-lattice index     =            0
     lattice parameter (alat)  =      12.3824  a.u.
     unit-cell volume          =    5825.9133 (a.u.)^3
     number of atoms/cell      =           48
     number of atomic types    =            3
     number of electrons       =       368.00
     number of Kohn-Sham states=          221
     kinetic-energy cutoff     =      50.0000  Ry
     charge density cutoff     =     500.0000  Ry
     scf convergence threshold =      1.0E-09
     mixing beta               =       0.7000
     number of iterations used =            8  local-TF  mixing
     energy convergence thresh.=      1.0E-04
     force convergence thresh. =      1.0E-04
     Exchange-correlation= PBE
                           (   1   4   3   4   0   0   0)
     nstep                     =          200

                                  Environ Setup Summary

          O. Andreussi, I. Dabo and N. Marzari, J. Chem. Phys. 136, 064102 (2012)

     in publications or presentations arising from this work.

     Parameters

     compensation onset threshold      =               0.1000E+00
     static permittivity               =                    78.30
     surface tension in input (dyn/cm) =                    47.90
     surface tension in internal units =               0.6153E-04
     external pressure in input (GPa)  =                    -0.36
     external pressure in inter. units =              -0.2447E-04

     Solvent Boundary

     solvent mode                      =               electronic
     derivatives method                =                    chain
     numerical core for derivatives    =                      fft
     switching function adopted        =                     SCCS
     density limit for vacuum region   =               0.5000E-02
     density limit for bulk solvent    =               0.1000E-03

     Electrostatic Setup

     electrostatic problem to solve    =              generalized
     numerical solver adopted          =                       cg
     type of auxiliary density adopted =                     none
     numerical core for poisson        =                      fft
     type of pbc corrections           =                parabolic
     numerical core for corrections    =                      1da

     celldm(1)=  12.382447  celldm(2)=   0.000000  celldm(3)=   0.000000
     celldm(4)=   0.000000  celldm(5)=   0.000000  celldm(6)=   0.000000

     crystal axes: (cart. coord. in units of alat)
               a(1) = (   1.000000   0.000000   0.000000 )
               a(2) = (   0.000000   0.908473   0.000000 )
               a(3) = (   0.000000   0.000000   3.377790 )

     reciprocal axes: (cart. coord. in units 2 pi/alat)
               b(1) = (  1.000000  0.000000  0.000000 )
               b(2) = (  0.000000  1.100748  0.000000 )
               b(3) = (  0.000000  0.000000  0.296052 )

     PseudoPot. # 1 for O  read from file:
     /gpfs/group/ixd4/default/Simon/pseudopotentials/materialscloud/SSSP_1.3.0_PBE_efficiency/O.pbe-n-kjpaw_psl.0.1.UPF
     MD5 check sum: 0234752ac141de4415c5fc33072bef88
     Pseudo is Projector augmented-wave + core cor, Zval =  6.0
     Generated using "atomic" code by A. Dal Corso  v.5.0.99 svn rev. 10869
     Shape of augmentation charge: BESSEL
     Using radial grid of 1095 points,  4 beta functions with:
                l(1) =   0
                l(2) =   0
                l(3) =   1
                l(4) =   1
     Q(r) pseudized with 0 coefficients

     PseudoPot. # 2 for Ru read from file:
     /gpfs/group/ixd4/default/Simon/pseudopotentials/materialscloud/SSSP_1.3.0_PBE_efficiency/Ru_ONCV_PBE-1.0.oncvpsp.upf
     MD5 check sum: be037bb81c227cfb9b1461a9f099f4bd
     Pseudo is Norm-conserving, Zval = 16.0
     Generated using ONCVPSP code by D. R. Hamann
     Using radial grid of 1458 points,  6 beta functions with:
                l(1) =   0
                l(2) =   0
                l(3) =   1
                l(4) =   1
                l(5) =   2
                l(6) =   2

     PseudoPot. # 3 for H  read from file:
     /gpfs/group/ixd4/default/Simon/pseudopotentials/materialscloud/SSSP_1.3.0_PBE_efficiency/H.pbe-rrkjus_psl.1.0.0.UPF
     MD5 check sum: f52b6d4d1c606e5624b1dc7b2218f220
     Pseudo is Ultrasoft, Zval =  1.0
     Generated using "atomic" code by A. Dal Corso  v.5.1
     Using radial grid of  929 points,  2 beta functions with:
                l(1) =   0
                l(2) =   0
     Q(r) pseudized with 0 coefficients

     atomic species   valence    mass     pseudopotential
        O              6.00    15.99940     O ( 1.00)
        Ru            16.00   101.07000     Ru( 1.00)
        H              1.00     1.00794     H ( 1.00)

      4 Sym. Ops. (no inversion) found

   Cartesian axes

     site n.     atom                  positions (alat units)
         1           O   tau(   1) = (  -0.0037130   0.4542364   0.9076686  )
         2           O   tau(   2) = (   0.4958301   0.4542364   0.9019659  )
         3           O   tau(   3) = (  -0.0029101   0.0000000   0.9739985  )
         4           O   tau(   4) = (   0.4983427   0.0000000   1.0394218  )
         5           Ru  tau(   5) = (   0.2561548   0.0000000   1.2064934  )
         6           Ru  tau(   6) = (   0.7401229   0.0000000   1.2068292  )
         7           O   tau(   7) = (   0.2471641   0.2788641   1.2039668  )
         8           O   tau(   8) = (   0.7493781   0.2784950   1.2038611  )
         9           Ru  tau(   9) = (  -0.0021851   0.4542364   1.2126455  )
        10           Ru  tau(  10) = (   0.4983876   0.4542364   1.2003028  )
        11           O   tau(  11) = (   0.2471641   0.6296087   1.2039668  )
        12           O   tau(  12) = (   0.7493781   0.6299778   1.2038611  )
        13           O   tau(  13) = (  -0.0011417   0.0000000   1.3895923  )
        14           O   tau(  14) = (   0.4977025   0.0000000   1.3924066  )
        15           O   tau(  15) = (  -0.0014921   0.4542364   1.5067713  )
        16           O   tau(  16) = (   0.4987476   0.4542364   1.4931214  )
        17           Ru  tau(  17) = (  -0.0005083   0.0000000   1.6888985  )
        18           Ru  tau(  18) = (   0.4965521   0.0000000   1.6888985  )
        19           O   tau(  19) = (   0.2476834   0.1774408   1.6888985  )
        20           O   tau(  20) = (   0.7488218   0.1741648   1.6888985  )
        21           Ru  tau(  21) = (   0.2528314   0.4542364   1.6888985  )
        22           Ru  tau(  22) = (   0.7431848   0.4542364   1.6888985  )
        23           O   tau(  23) = (   0.2476834   0.7310329   1.6888985  )
        24           O   tau(  24) = (   0.7488218   0.7343089   1.6888985  )
        25           O   tau(  25) = (  -0.0014921   0.4542364   1.8710224  )
        26           O   tau(  26) = (   0.4987476   0.4542364   1.8846723  )
        27           O   tau(  27) = (  -0.0011417   0.0000000   1.9882014  )
        28           O   tau(  28) = (   0.4977025   0.0000000   1.9853871  )
        29           Ru  tau(  29) = (   0.2561548   0.0000000   2.1713003  )
        30           Ru  tau(  30) = (   0.7401229   0.0000000   2.1709645  )
        31           O   tau(  31) = (   0.2471641   0.2788641   2.1738269  )
        32           O   tau(  32) = (   0.7493781   0.2784950   2.1739326  )
        33           Ru  tau(  33) = (  -0.0021851   0.4542364   2.1651482  )
        34           Ru  tau(  34) = (   0.4983876   0.4542364   2.1774909  )
        35           O   tau(  35) = (   0.2471641   0.6296087   2.1738269  )
        36           O   tau(  36) = (   0.7493781   0.6299778   2.1739326  )
        37           O   tau(  37) = (  -0.0029101   0.0000000   2.4037985  )
        38           O   tau(  38) = (   0.4983427   0.0000000   2.3383753  )
        39           O   tau(  39) = (  -0.0037130   0.4542364   2.4701251  )
        40           O   tau(  40) = (   0.4958301   0.4542364   2.4758278  )
        41           H   tau(  41) = (   0.1429733   0.4542364   0.8632658  )
        42           H   tau(  42) = (   0.1429733   0.4542364   2.5145245  )
        43           H   tau(  43) = (   0.6417831   0.4542364   0.8550975  )
        44           H   tau(  44) = (   0.6417831   0.4542364   2.5226928  )
        45           H   tau(  45) = (  -0.0044760   0.1096260   0.8845559  )
        46           H   tau(  46) = (  -0.0044760   0.1096260   2.4932345  )
        47           H   tau(  47) = (  -0.0044760   0.7988468   0.8845559  )
        48           H   tau(  48) = (  -0.0044760   0.7988468   2.4932345  )

     number of k points=     1  Marzari-Vanderbilt smearing, width (Ry)=  0.0300
                       cart. coord. in units 2pi/alat
        k(    1) = (   0.2500000   0.2751871   0.0000000), wk =   2.0000000

     Check: negative core charge=   -0.000001

     Initial potential from superposition of free atoms

     starting charge     367.9933, renormalised to     368.0000

     add environment contribution to local potential
     Polarization accuracy = 7.7E-12, # of iterations =  23

     negative rho (up, down):  2.659E-05 0.000E+00
     Starting wfcs are  240 randomized atomic wfcs
     Checking if some PAW data can be deallocated...

     Self-consistent Calculation

     iteration #  1     ecut=    50.00 Ry     beta= 0.70
     Davidson diagonalization with overlap
     ethr =  1.00E-02,  avg # of iterations =  3.0

     total energy              =   -3435.34040541 Ry
     estimated scf accuracy    <       9.21359241 Ry
     electrostatic embedding   =      -0.00179119 Ry
     cavitation energy         =       0.01928922 Ry
     PV energy                 =      -0.08597980 Ry
     correction to one-el term =     223.71610823 Ry

[...]

     negative rho (up, down):  5.414E-04 0.000E+00

[...]

     iteration # 16     ecut=    50.00 Ry     beta= 0.70
     Davidson diagonalization with overlap
     c_bands:  1 eigenvalues not converged
     ethr =  2.88E-07,  avg # of iterations = 20.0

[...]

[...]
     atom   28 type  1   force =    -0.07643922   -0.00000000  -36.97572995
     atom   29 type  2   force =     6.85834526    0.00000000 -171.80730098
     atom   30 type  2   force =    -6.66150793   -0.00000000 -171.72752554
     atom   31 type  1   force =     0.79203103    0.99784558  -64.03632242
     atom   32 type  1   force =    -0.85042703    0.83533121  -64.95204757
     atom   33 type  2   force =     0.68268022   -0.00000000 -168.95758039
     atom   34 type  2   force =    -0.54735265    0.00000000 -171.26201086
     atom   35 type  1   force =     0.79203103   -0.99784558  -64.03632242
     atom   36 type  1   force =    -0.85042703   -0.83533121  -64.95204757
     atom   37 type  1   force =    -0.10544663    0.00000000  -90.44320880
     atom   38 type  1   force =    -0.03939385   -0.00000000  -94.19883169
     atom   39 type  1   force =     1.39134200    0.00000000  -94.29289267
     atom   40 type  1   force =     0.92236330    0.00000000  -95.36014777
     atom   41 type  3   force =    -2.81812282   -0.00000000   16.11896013
     atom   42 type  3   force =    -2.81812282   -0.00000000  -16.11896013
     atom   43 type  3   force =    -2.83628388   -0.00000000   16.37607230
     atom   44 type  3   force =    -2.83628388   -0.00000000  -16.37607230
     atom   45 type  3   force =     0.06744427   -2.12556344   16.88269807
     atom   46 type  3   force =     0.06744427   -2.12556344  -16.88269807
     atom   47 type  3   force =     0.06744427    2.12556344   16.88269807
     atom   48 type  3   force =     0.06744427    2.12556344  -16.88269807
     The core correction contribution to forces
     atom    1 type  1   force =    -0.01704353   -0.00000000   -0.00408577
     atom    2 type  1   force =    -0.01772355    0.00000000   -0.00254219
     atom    3 type  1   force =     0.00058846    0.00000000    0.01385029
     atom    4 type  1   force =    -0.00004175   -0.00000000   -0.01207215
     atom    5 type  2   force =     0.00000000    0.00000000    0.00000000
     atom    6 type  2   force =     0.00000000    0.00000000    0.00000000
     atom    7 type  1   force =    -0.00009663    0.00075826    0.00006734
     atom    8 type  1   force =     0.00040501    0.00086595   -0.00011677
     atom    9 type  2   force =     0.00000000    0.00000000    0.00000000
     atom   10 type  2   force =     0.00000000    0.00000000    0.00000000
     atom   11 type  1   force =    -0.00009663   -0.00075826    0.00006734
     atom   12 type  1   force =     0.00040501   -0.00086595   -0.00011677
     atom   13 type  1   force =     0.00002507    0.00000000   -0.00156174
     atom   14 type  1   force =     0.00010305    0.00000000    0.00250199
     atom   15 type  1   force =     0.00008979    0.00000000    0.00043841
     atom   16 type  1   force =    -0.00001372    0.00000000   -0.00028479
     atom   17 type  2   force =     0.00000000    0.00000000    0.00000000
     atom   18 type  2   force =     0.00000000    0.00000000    0.00000000
     atom   19 type  1   force =    -0.00024014   -0.00040666   -0.00000208
     atom   20 type  1   force =     0.00011646   -0.00040622   -0.00000208
     atom   21 type  2   force =     0.00000000    0.00000000    0.00000000
     atom   22 type  2   force =     0.00000000    0.00000000    0.00000000
     atom   23 type  1   force =    -0.00024015    0.00040615   -0.00000208
     atom   24 type  1   force =     0.00011647    0.00040571   -0.00000208
     atom   25 type  1   force =     0.00008977    0.00000000   -0.00044065
     atom   26 type  1   force =    -0.00001374   -0.00000000    0.00028261
     atom   27 type  1   force =     0.00002508   -0.00000000    0.00155940
     atom   28 type  1   force =     0.00010307   -0.00000000   -0.00250441
     atom   29 type  2   force =     0.00000000    0.00000000    0.00000000
     atom   30 type  2   force =     0.00000000    0.00000000    0.00000000
     atom   31 type  1   force =    -0.00009651    0.00075831   -0.00006932
     atom   32 type  1   force =     0.00040492    0.00086603    0.00011477
     atom   33 type  2   force =     0.00000000    0.00000000    0.00000000
     atom   34 type  2   force =     0.00000000    0.00000000    0.00000000
     atom   35 type  1   force =    -0.00009651   -0.00075831   -0.00006932
     atom   36 type  1   force =     0.00040492   -0.00086603    0.00011477
     atom   37 type  1   force =     0.00058851    0.00000000   -0.01385397
     atom   38 type  1   force =    -0.00004176   -0.00000000    0.01206841
     atom   39 type  1   force =    -0.01704429   -0.00000000    0.00408347
     atom   40 type  1   force =    -0.01772436    0.00000000    0.00253982
     atom   41 type  3   force =     0.00000000    0.00000000    0.00000000
     atom   42 type  3   force =     0.00000000    0.00000000    0.00000000
     atom   43 type  3   force =     0.00000000    0.00000000    0.00000000
     atom   44 type  3   force =     0.00000000    0.00000000    0.00000000
     atom   45 type  3   force =     0.00000000    0.00000000    0.00000000
     atom   46 type  3   force =     0.00000000    0.00000000    0.00000000
     atom   47 type  3   force =     0.00000000    0.00000000    0.00000000
     atom   48 type  3   force =     0.00000000    0.00000000    0.00000000
     The Hubbard contrib.    to forces
     atom    1 type  1   force =     0.00000000    0.00000000    0.00000000
     atom    2 type  1   force =     0.00000000    0.00000000    0.00000000
     atom    3 type  1   force =     0.00000000    0.00000000    0.00000000
     atom    4 type  1   force =     0.00000000    0.00000000    0.00000000
     atom    5 type  2   force =     0.00000000    0.00000000    0.00000000
     atom    6 type  2   force =     0.00000000    0.00000000    0.00000000
     atom    7 type  1   force =     0.00000000    0.00000000    0.00000000
     atom    8 type  1   force =     0.00000000    0.00000000    0.00000000
     atom    9 type  2   force =     0.00000000    0.00000000    0.00000000
     atom   10 type  2   force =     0.00000000    0.00000000    0.00000000
     atom   11 type  1   force =     0.00000000    0.00000000    0.00000000
     atom   12 type  1   force =     0.00000000    0.00000000    0.00000000
     atom   13 type  1   force =     0.00000000    0.00000000    0.00000000
     atom   14 type  1   force =     0.00000000    0.00000000    0.00000000
     atom   15 type  1   force =     0.00000000    0.00000000    0.00000000
     atom   16 type  1   force =     0.00000000    0.00000000    0.00000000
     atom   17 type  2   force =     0.00000000    0.00000000    0.00000000
     atom   18 type  2   force =     0.00000000    0.00000000    0.00000000
     atom   19 type  1   force =     0.00000000    0.00000000    0.00000000
     atom   20 type  1   force =     0.00000000    0.00000000    0.00000000
     atom   21 type  2   force =     0.00000000    0.00000000    0.00000000
     atom   22 type  2   force =     0.00000000    0.00000000    0.00000000
     atom   23 type  1   force =     0.00000000    0.00000000    0.00000000
     atom   24 type  1   force =     0.00000000    0.00000000    0.00000000
     atom   25 type  1   force =     0.00000000    0.00000000    0.00000000
     atom   26 type  1   force =     0.00000000    0.00000000    0.00000000
     atom   27 type  1   force =     0.00000000    0.00000000    0.00000000
     atom   28 type  1   force =     0.00000000    0.00000000    0.00000000
     atom   29 type  2   force =     0.00000000    0.00000000    0.00000000
     atom   30 type  2   force =     0.00000000    0.00000000    0.00000000
     atom   31 type  1   force =     0.00000000    0.00000000    0.00000000
     atom   32 type  1   force =     0.00000000    0.00000000    0.00000000
     atom   33 type  2   force =     0.00000000    0.00000000    0.00000000
     atom   34 type  2   force =     0.00000000    0.00000000    0.00000000
     atom   35 type  1   force =     0.00000000    0.00000000    0.00000000
     atom   36 type  1   force =     0.00000000    0.00000000    0.00000000
     atom   37 type  1   force =     0.00000000    0.00000000    0.00000000
     atom   38 type  1   force =     0.00000000    0.00000000    0.00000000
     atom   39 type  1   force =     0.00000000    0.00000000    0.00000000
     atom   40 type  1   force =     0.00000000    0.00000000    0.00000000
     atom   41 type  3   force =     0.00000000    0.00000000    0.00000000
     atom   42 type  3   force =     0.00000000    0.00000000    0.00000000
     atom   43 type  3   force =     0.00000000    0.00000000    0.00000000
     atom   44 type  3   force =     0.00000000    0.00000000    0.00000000
     atom   45 type  3   force =     0.00000000    0.00000000    0.00000000
     atom   46 type  3   force =     0.00000000    0.00000000    0.00000000
     atom   47 type  3   force =     0.00000000    0.00000000    0.00000000
     atom   48 type  3   force =     0.00000000    0.00000000    0.00000000
     The SCF correction term to forces
     atom    1 type  1   force =    -0.00000098    0.00000000    0.00000137
     atom    2 type  1   force =     0.00000070    0.00000000    0.00000118
     atom    3 type  1   force =    -0.00000226   -0.00000000    0.00000023
     atom    4 type  1   force =     0.00000224   -0.00000000    0.00000101
     atom    5 type  2   force =    -0.00000221   -0.00000000    0.00000459
     atom    6 type  2   force =     0.00000319   -0.00000000    0.00000274
     atom    7 type  1   force =    -0.00000117    0.00000150    0.00000150
     atom    8 type  1   force =     0.00000101    0.00000010    0.00000112
     atom    9 type  2   force =    -0.00000222    0.00000000    0.00000250
     atom   10 type  2   force =     0.00000231    0.00000000    0.00000355
     atom   11 type  1   force =    -0.00000117   -0.00000150    0.00000150
     atom   12 type  1   force =     0.00000101   -0.00000010    0.00000112
     atom   13 type  1   force =    -0.00000127   -0.00000000    0.00000164
     atom   14 type  1   force =     0.00000150    0.00000000    0.00000179
     atom   15 type  1   force =    -0.00000051    0.00000000    0.00000022
     atom   16 type  1   force =     0.00000054   -0.00000000    0.00000072
     atom   17 type  2   force =    -0.00000130   -0.00000000    0.00000001
     atom   18 type  2   force =     0.00000112    0.00000000    0.00000001
     atom   19 type  1   force =    -0.00000067   -0.00000041    0.00000000
     atom   20 type  1   force =     0.00000068   -0.00000041    0.00000000
     atom   21 type  2   force =    -0.00000043    0.00000000    0.00000001
     atom   22 type  2   force =     0.00000162    0.00000000    0.00000001
     atom   23 type  1   force =    -0.00000067    0.00000041    0.00000000
     atom   24 type  1   force =     0.00000068    0.00000041    0.00000000
     atom   25 type  1   force =    -0.00000051    0.00000000   -0.00000022
     atom   26 type  1   force =     0.00000054   -0.00000000   -0.00000071
     atom   27 type  1   force =    -0.00000127   -0.00000000   -0.00000164
     atom   28 type  1   force =     0.00000150    0.00000000   -0.00000179
     atom   29 type  2   force =    -0.00000222   -0.00000000   -0.00000458
     atom   30 type  2   force =     0.00000319   -0.00000000   -0.00000273
     atom   31 type  1   force =    -0.00000117    0.00000150   -0.00000150
     atom   32 type  1   force =     0.00000101    0.00000010   -0.00000111
     atom   33 type  2   force =    -0.00000222    0.00000000   -0.00000249
     atom   34 type  2   force =     0.00000231    0.00000000   -0.00000354
     atom   35 type  1   force =    -0.00000117   -0.00000150   -0.00000150
     atom   36 type  1   force =     0.00000101   -0.00000010   -0.00000111
     atom   37 type  1   force =    -0.00000226    0.00000000   -0.00000024
     atom   38 type  1   force =     0.00000224    0.00000000   -0.00000101
     atom   39 type  1   force =    -0.00000098    0.00000000   -0.00000137
     atom   40 type  1   force =     0.00000070    0.00000000   -0.00000118
     atom   41 type  3   force =    -0.00000020   -0.00000000    0.00000016
     atom   42 type  3   force =    -0.00000020    0.00000000   -0.00000016
     atom   43 type  3   force =     0.00000018    0.00000000    0.00000016
     atom   44 type  3   force =     0.00000018   -0.00000000   -0.00000016
     atom   45 type  3   force =    -0.00000020   -0.00000000    0.00000015
     atom   46 type  3   force =    -0.00000020   -0.00000000   -0.00000015
     atom   47 type  3   force =    -0.00000020    0.00000000    0.00000015
     atom   48 type  3   force =    -0.00000020    0.00000000   -0.00000015

     Total force =     0.000294     Total SCF correction =     0.000016
     Energy error            =      3.0E-07 Ry
     Gradient error          =      6.9E-05 Ry/Bohr

     bfgs converged in  44 scf cycles and  43 bfgs steps
     (criteria: energy <  1.0E-04 Ry, force <  1.0E-04 Ry/Bohr)

     End of BFGS Geometry Optimization

     Final energy             =   -3437.6233176984 Ry

     File /storage/home/mgm6007/ixd4/Maria/StrainJin_Files/RuO2-110-0-0124/RuO2-110-0-0124.bfgs deleted, as requested
Begin final coordinates

ATOMIC_POSITIONS (crystal)
O             0.0034513001        0.5000000000        0.2665639063
O             0.4866982992        0.5000000000        0.2675102388
O            -0.0030407025        0.0000000000        0.2902966597
O             0.4985471945        0.0000000000        0.3067059348
Ru            0.2626732143        0.0000000000        0.3576919678
Ru            0.7351536568        0.0000000000        0.3575224607
O             0.2480545789        0.3134595997        0.3572489782
O             0.7511092975        0.3137100438        0.3560568542
Ru            0.0000980939        0.5000000000        0.3582301544
Ru            0.4994808776        0.5000000000        0.3562270294
O             0.2480545789        0.6865404003        0.3572489782
O             0.7511092975        0.6862899562        0.3560568542
O            -0.0014672711        0.0000000000        0.4105406141
O             0.4991158275        0.0000000000        0.4116203323
O            -0.0006346641        0.5000000000        0.4459814054
O             0.5001744771        0.5000000000        0.4447997531
Ru           -0.0013916695        0.0000000000        0.5000010000
Ru            0.4986461031        0.0000000000        0.5000010000
O             0.2477220511        0.1861755430        0.5000010000
O             0.7493382421        0.1861686419        0.5000010000
Ru            0.2505599324        0.5000000000        0.5000010000
Ru            0.7489572662        0.5000000000        0.5000010000
O             0.2477220511        0.8138254570        0.5000010000
O             0.7493382421        0.8138323581        0.5000010000
O            -0.0006346641        0.5000000000        0.5540195946
O             0.5001744771        0.5000000000        0.5552012469
O            -0.0014672711        0.0000000000        0.5894603859
O             0.4991158275        0.0000000000        0.5883806677
Ru            0.2626732143        0.0000000000        0.6423090322
Ru            0.7351536568        0.0000000000        0.6424785393
O             0.2480545789        0.3134595997        0.6427520218
O             0.7511092975        0.3137100438        0.6439441458
Ru            0.0000980939        0.5000000000        0.6417708456
Ru            0.4994808776        0.5000000000        0.6437739706
O             0.2480545789        0.6865404003        0.6427520218
O             0.7511092975        0.6862899562        0.6439441458
O            -0.0030407025        0.0000000000        0.7097053403
O             0.4985471945        0.0000000000        0.6932960652
O             0.0034513001        0.5000000000        0.7334370937
O             0.4866982992        0.5000000000        0.7324907612
H             0.1472604362        0.5000000000        0.2543107537
H             0.1472604362        0.5000000000        0.7456892463
H             0.6248064622        0.5000000000        0.2508388058
H             0.6248064622        0.5000000000        0.7491611942
H            -0.0054105319        0.1360097277        0.2642934345
H            -0.0054105319        0.1360097277        0.7357065655
H            -0.0054105319        0.8639902723        0.2642934345
H            -0.0054105319        0.8639902723        0.7357065655
End final coordinates

     Writing all to output data dir /storage/home/mgm6007/ixd4/Maria/StrainJin_Files/RuO2-110-0-0124/RuO2-110-0-0124.save/

     General routines

     Parallel routines

     Environ routines

   This run was terminated on:  22:59: 3  27Jul2023

   JOB DONE.