     Program PWSCF v.7.2 starts on 24Jul2023 at 16:10:38
        Git branch: heads/qe-7.2
        Last git commit: b4c5e8deeb7d1863e7553a87b45f8d22c21926a5
        Last git commit date: Mon Mar 27 16:12:09 2023 +0000
        Last git commit subject: Merge branch 'merge_fix_hubbard' into 'develop'

     Reading input from RuO2-110-0-.in
Warning: card  H 1.007940 H.PBE-RRKJUS_PSL.1.0.0.UPF ignored

     Current dimensions of program PWSCF are:
     Max number of different atomic species (ntypx) = 10
     Max number of k-points (npk) =  40000
     Max angular momentum in pseudopotentials (lmaxx) =  4

     Reading input from environ.in:
     * Environ restarting
     * setting up water environment
     * using electronic solvent mode
     * setting boundary derivatives method to SCCS default

     file O.pbe-n-kjpaw_psl.0.1.UPF: wavefunction(s)  2P renormalized
     Message from routine setup:
     using ibrav=0 with symmetry is DISCOURAGED, use correct ibrav instead

     R & G space division:  proc/nbgrp/npool/nimage =      20
     Subspace diagonalization in iterative solution of the eigenvalue problem:
     one sub-group per band group will be used

     Using Slab Decomposition

     bravais-lattice index     =            0
     lattice parameter (alat)  =      12.3824  a.u.
     unit-cell volume          =    5957.5248 (a.u.)^3
     number of atoms/cell      =           40
     number of atomic types    =            2
     number of electrons       =       360.00
     number of Kohn-Sham states=          216
     kinetic-energy cutoff     =      50.0000  Ry
     charge density cutoff     =     500.0000  Ry
     scf convergence threshold =      1.0E-09
     mixing beta               =       0.7000
     number of iterations used =            8  local-TF  mixing
     energy convergence thresh.=      1.0E-04
     force convergence thresh. =      1.0E-04
     Exchange-correlation= PBE
                           (   1   4   3   4   0   0   0)
     nstep                     =          200

                                  Environ Setup Summary

          O. Andreussi, I. Dabo and N. Marzari, J. Chem. Phys. 136, 064102 (2012)

     in publications or presentations arising from this work.

     Parameters

     compensation onset threshold      =               0.1000E+00
     static permittivity               =                    78.30
     surface tension in input (dyn/cm) =                    47.90
     surface tension in internal units =               0.6153E-04
     external pressure in input (GPa)  =                    -0.36
     external pressure in inter. units =              -0.2447E-04

     Solvent Boundary

     solvent mode                      =               electronic
     derivatives method                =                    chain
     numerical core for derivatives    =                      fft
     switching function adopted        =                     SCCS
     density limit for vacuum region   =               0.5000E-02
     density limit for bulk solvent    =               0.1000E-03

     Electrostatic Setup

     electrostatic problem to solve    =              generalized
     numerical solver adopted          =                       cg
     type of auxiliary density adopted =                     none
     numerical core for poisson        =                      fft
     type of pbc corrections           =                parabolic
     numerical core for corrections    =                      1da

     celldm(1)=  12.382447  celldm(2)=   0.000000  celldm(3)=   0.000000
     celldm(4)=   0.000000  celldm(5)=   0.000000  celldm(6)=   0.000000

     crystal axes: (cart. coord. in units of alat)
               a(1) = (   1.000000   0.000000   0.000000 )
               a(2) = (   0.000000   0.908473   0.000000 )
               a(3) = (   0.000000   0.000000   3.454097 )

     reciprocal axes: (cart. coord. in units 2 pi/alat)
               b(1) = (  1.000000  0.000000  0.000000 )
               b(2) = (  0.000000  1.100748  0.000000 )
               b(3) = (  0.000000  0.000000  0.289511 )

     PseudoPot. # 1 for O  read from file:
     /gpfs/group/ixd4/default/Simon/pseudopotentials/materialscloud/SSSP_1.3.0_PBE_efficiency/O.pbe-n-kjpaw_psl.0.1.UPF
     MD5 check sum: 0234752ac141de4415c5fc33072bef88
     Pseudo is Projector augmented-wave + core cor, Zval =  6.0
     Generated using "atomic" code by A. Dal Corso  v.5.0.99 svn rev. 10869
     Shape of augmentation charge: BESSEL
     Using radial grid of 1095 points,  4 beta functions with:
                l(1) =   0
                l(2) =   0
                l(3) =   1
                l(4) =   1
     Q(r) pseudized with 0 coefficients

     PseudoPot. # 2 for Ru read from file:
     /gpfs/group/ixd4/default/Simon/pseudopotentials/materialscloud/SSSP_1.3.0_PBE_efficiency/Ru_ONCV_PBE-1.0.oncvpsp.upf
     MD5 check sum: be037bb81c227cfb9b1461a9f099f4bd
     Pseudo is Norm-conserving, Zval = 16.0
     Generated using ONCVPSP code by D. R. Hamann
     Using radial grid of 1458 points,  6 beta functions with:
                l(1) =   0
                l(2) =   0
                l(3) =   1
                l(4) =   1
                l(5) =   2
                l(6) =   2

     atomic species   valence    mass     pseudopotential
        O              6.00    15.99940     O ( 1.00)
        Ru            16.00   101.07000     Ru( 1.00)

      8 Sym. Ops., with inversion, found

                                    s                        frac. trans.

      isym =  1     identity

 cryst.   s( 1) = (     1          0          0      )
                  (     0          1          0      )
                  (     0          0          1      )

 cart.    s( 1) = (  1.0000000  0.0000000  0.0000000 )
                  (  0.0000000  1.0000000  0.0000000 )
                  (  0.0000000  0.0000000  1.0000000 )

      isym =  2     180 deg rotation - cart. axis [0,0,1]

[...]

      isym =  4     180 deg rotation - cart. axis [1,0,0]

[...]

      isym =  5     inversion

[...]

      isym =  6     inv. 180 deg rotation - cart. axis [0,0,1]

[...]

      isym =  8     inv. 180 deg rotation - cart. axis [1,0,0]

 cryst.   s( 8) = (    -1          0          0      )
                  (     0          1          0      )
                  (     0          0          1      )

 cart.    s( 8) = ( -1.0000000  0.0000000  0.0000000 )
                  (  0.0000000  1.0000000  0.0000000 )
                  (  0.0000000  0.0000000  1.0000000 )

   Cartesian axes

     site n.     atom                  positions (alat units)
         1           O   tau(   1) = (   0.0000000   0.4542364   0.9652526  )
         2           O   tau(   2) = (   0.5000000   0.4542364   0.9673404  )
         3           O   tau(   3) = (   0.0000000   0.0000000   1.0803189  )
         4           O   tau(   4) = (   0.5000000   0.0000000   1.0801623  )
         5           Ru  tau(   5) = (   0.2501092   0.0000000   1.2387363  )
         6           Ru  tau(   6) = (   0.7498908   0.0000000   1.2387363  )
         7           O   tau(   7) = (   0.2505954   0.2804225   1.2508496  )
         8           O   tau(   8) = (   0.7494046   0.2804225   1.2508496  )
         9           Ru  tau(   9) = (   0.0000000   0.4542364   1.2241146  )
        10           Ru  tau(  10) = (   0.5000000   0.4542364   1.2258312  )
        11           O   tau(  11) = (   0.2505954   0.6280504   1.2508496  )
        12           O   tau(  12) = (   0.7494046   0.6280504   1.2508496  )
        13           O   tau(  13) = (   0.0000000   0.0000000   1.4330042  )
        14           O   tau(  14) = (   0.5000000   0.0000000   1.4333065  )
        15           O   tau(  15) = (   0.0000000   0.4542364   1.5337676  )
        16           O   tau(  16) = (   0.5000000   0.4542364   1.5465648  )
        17           Ru  tau(  17) = (   0.0000000   0.0000000   1.7270519  )
        18           Ru  tau(  18) = (   0.5000000   0.0000000   1.7270519  )
        19           O   tau(  19) = (   0.2489047   0.1756573   1.7270519  )
        20           O   tau(  20) = (   0.7510953   0.1756573   1.7270519  )
        21           Ru  tau(  21) = (   0.2470123   0.4542364   1.7270519  )
        22           Ru  tau(  22) = (   0.7529877   0.4542364   1.7270519  )
        23           O   tau(  23) = (   0.2489047   0.7328165   1.7270519  )
        24           O   tau(  24) = (   0.7510953   0.7328165   1.7270519  )
        25           O   tau(  25) = (   0.0000000   0.4542364   1.9203328  )
        26           O   tau(  26) = (   0.5000000   0.4542364   1.9075356  )
        27           O   tau(  27) = (   0.0000000   0.0000000   2.0210962  )
        28           O   tau(  28) = (   0.5000000   0.0000000   2.0207939  )
        29           Ru  tau(  29) = (   0.2501092   0.0000000   2.2153676  )
        30           Ru  tau(  30) = (   0.7498908   0.0000000   2.2153676  )
        31           O   tau(  31) = (   0.2505954   0.2804225   2.2032543  )
        32           O   tau(  32) = (   0.7494046   0.2804225   2.2032543  )
        33           Ru  tau(  33) = (   0.0000000   0.4542364   2.2299893  )
        34           Ru  tau(  34) = (   0.5000000   0.4542364   2.2282727  )
        35           O   tau(  35) = (   0.2505954   0.6280504   2.2032543  )
        36           O   tau(  36) = (   0.7494046   0.6280504   2.2032543  )
        37           O   tau(  37) = (   0.0000000   0.0000000   2.3737815  )
        38           O   tau(  38) = (   0.5000000   0.0000000   2.3739382  )
        39           O   tau(  39) = (   0.0000000   0.4542364   2.4888478  )
        40           O   tau(  40) = (   0.5000000   0.4542364   2.4867600  )

   Crystallographic axes

     site n.     atom                  positions (cryst. coord.)
         1           O   tau(   1) = (  0.0000000  0.5000000  0.2794515  )
         2           O   tau(   2) = (  0.5000000  0.5000000  0.2800560  )
         3           O   tau(   3) = (  0.0000000  0.0000000  0.3127645  )
         4           O   tau(   4) = (  0.5000000  0.0000000  0.3127191  )
         5           Ru  tau(   5) = (  0.2501092  0.0000000  0.3586281  )
         6           Ru  tau(   6) = (  0.7498908  0.0000000  0.3586281  )
         7           O   tau(   7) = (  0.2505954  0.3086746  0.3621350  )
         8           O   tau(   8) = (  0.7494046  0.3086746  0.3621350  )
         9           Ru  tau(   9) = (  0.0000000  0.5000000  0.3543950  )
        10           Ru  tau(  10) = (  0.5000000  0.5000000  0.3548919  )
        11           O   tau(  11) = (  0.2505954  0.6913254  0.3621350  )
        12           O   tau(  12) = (  0.7494046  0.6913254  0.3621350  )
        13           O   tau(  13) = (  0.0000000  0.0000000  0.4148709  )
        14           O   tau(  14) = (  0.5000000  0.0000000  0.4149584  )
        15           O   tau(  15) = (  0.0000000  0.5000000  0.4440430  )
        16           O   tau(  16) = (  0.5000000  0.5000000  0.4477480  )
        17           Ru  tau(  17) = (  0.0000000  0.0000000  0.5000010  )
        18           Ru  tau(  18) = (  0.5000000  0.0000000  0.5000010  )
[...]
     atom   29 type  2   force =     0.00073226   -0.00000247  182.03225874
     atom   30 type  2   force =    -0.00073226   -0.00000247  182.03225874
     atom   31 type  1   force =     0.00013248   -0.69647895   62.77289462
     atom   32 type  1   force =    -0.00013248   -0.69647895   62.77289462
     atom   33 type  2   force =    -0.00000000    0.00000295  177.55807828
     atom   34 type  2   force =    -0.00000000    0.00000295  177.54255879
     atom   35 type  1   force =     0.00013248    0.69647970   62.77289189
     atom   36 type  1   force =    -0.00013248    0.69647970   62.77289189
     atom   37 type  1   force =    -0.00000000   -0.00000034   96.72314714
     atom   38 type  1   force =    -0.00000000   -0.00000034   96.72294144
     atom   39 type  1   force =    -0.00000000    0.00000017  104.63968388
     atom   40 type  1   force =    -0.00000000    0.00000017  104.63946531
     The local contribution  to forces
     atom    1 type  1   force =    -0.00000000    0.00000000  103.19348606
     atom    2 type  1   force =     0.00000000    0.00000000  103.19330563
     atom    3 type  1   force =    -0.00000000    0.00000000   95.63661482
     atom    4 type  1   force =    -0.00000000    0.00000000   95.63643205
     atom    5 type  2   force =    -0.00073717    0.00000000  182.11909694
     atom    6 type  2   force =     0.00073717   -0.00000000  182.11909694
     atom    7 type  1   force =    -0.00011685    0.75855421   63.00193981
     atom    8 type  1   force =     0.00011685    0.75855421   63.00193981
     atom    9 type  2   force =    -0.00000000   -0.00000000  177.63965278
     atom   10 type  2   force =     0.00000000    0.00000000  177.62407012
     atom   11 type  1   force =    -0.00011685   -0.75855421   63.00193981
     atom   12 type  1   force =     0.00011685   -0.75855421   63.00193981
     atom   13 type  1   force =    -0.00000000   -0.00000000   39.92897021
     atom   14 type  1   force =    -0.00000000    0.00000000   39.92922143
     atom   15 type  1   force =    -0.00000000    0.00000000   27.15776062
     atom   16 type  1   force =     0.00000000    0.00000000   27.15325091
     atom   17 type  2   force =    -0.00000000    0.00000000   -0.00604974
     atom   18 type  2   force =    -0.00000000    0.00000000   -0.00604974
     atom   19 type  1   force =    -0.00013632   -0.44777071   -0.00254348
     atom   20 type  1   force =     0.00013632   -0.44777071   -0.00254348
     atom   21 type  2   force =    -0.00035889   -0.00000000   -0.00623840
     atom   22 type  2   force =     0.00035889   -0.00000000   -0.00623840
     atom   23 type  1   force =    -0.00013631    0.44742371   -0.00254348
     atom   24 type  1   force =     0.00013631    0.44742371   -0.00254348
     atom   25 type  1   force =    -0.00000000    0.00000000  -27.15961421
     atom   26 type  1   force =     0.00000000    0.00000000  -27.15510446
     atom   27 type  1   force =     0.00000000    0.00000000  -39.93077423
     atom   28 type  1   force =     0.00000000    0.00000000  -39.93102546
     atom   29 type  2   force =    -0.00073720   -0.00000000 -182.13171824
     atom   30 type  2   force =     0.00073720    0.00000000 -182.13171824
     atom   31 type  1   force =    -0.00011693    0.75854851  -63.00697691
     atom   32 type  1   force =     0.00011693    0.75854851  -63.00697691
     atom   33 type  2   force =    -0.00000000    0.00000000 -177.65151323
     atom   34 type  2   force =     0.00000000    0.00000000 -177.63593049
     atom   35 type  1   force =    -0.00011693   -0.75854851  -63.00697691
     atom   36 type  1   force =     0.00011693   -0.75854851  -63.00697691
     atom   37 type  1   force =     0.00000000    0.00000000  -95.63863115
     atom   38 type  1   force =     0.00000000    0.00000000  -95.63844839
     atom   39 type  1   force =    -0.00000000    0.00000000 -103.19488872
     atom   40 type  1   force =     0.00000000    0.00000000 -103.19470836
     The core correction contribution to forces
     atom    1 type  1   force =    -0.00000000    0.00000000   -0.01168686
     atom    2 type  1   force =     0.00000000   -0.00000000   -0.01168581
     atom    3 type  1   force =     0.00000000    0.00000000   -0.01096385
     atom    4 type  1   force =     0.00000000   -0.00000000   -0.01096352
     atom    5 type  2   force =     0.00000000    0.00000000    0.00000000
     atom    6 type  2   force =     0.00000000    0.00000000    0.00000000
     atom    7 type  1   force =     0.00000010    0.00008861    0.00241899
     atom    8 type  1   force =    -0.00000010    0.00008861    0.00241899
     atom    9 type  2   force =     0.00000000    0.00000000    0.00000000
     atom   10 type  2   force =     0.00000000    0.00000000    0.00000000
     atom   11 type  1   force =     0.00000010   -0.00008861    0.00241899
     atom   12 type  1   force =    -0.00000010   -0.00008861    0.00241899
     atom   13 type  1   force =    -0.00000000   -0.00000000   -0.00052116
     atom   14 type  1   force =     0.00000000    0.00000000   -0.00052146
     atom   15 type  1   force =    -0.00000000   -0.00000000   -0.00225621
     atom   16 type  1   force =    -0.00000000    0.00000000   -0.00225173
     atom   17 type  2   force =     0.00000000    0.00000000    0.00000000
     atom   18 type  2   force =     0.00000000    0.00000000    0.00000000
     atom   19 type  1   force =     0.00000041   -0.00019912   -0.00000214
     atom   20 type  1   force =    -0.00000041   -0.00019912   -0.00000214
     atom   21 type  2   force =     0.00000000    0.00000000    0.00000000
     atom   22 type  2   force =     0.00000000    0.00000000    0.00000000
     atom   23 type  1   force =     0.00000041    0.00019862   -0.00000214
     atom   24 type  1   force =    -0.00000041    0.00019862   -0.00000214
     atom   25 type  1   force =     0.00000000   -0.00000000    0.00225413
     atom   26 type  1   force =    -0.00000000   -0.00000000    0.00224964
     atom   27 type  1   force =    -0.00000000    0.00000000    0.00051873
     atom   28 type  1   force =    -0.00000000    0.00000000    0.00051903
     atom   29 type  2   force =     0.00000000    0.00000000    0.00000000
     atom   30 type  2   force =     0.00000000    0.00000000    0.00000000
     atom   31 type  1   force =     0.00000010    0.00008833   -0.00242185
     atom   32 type  1   force =    -0.00000010    0.00008833   -0.00242185
     atom   33 type  2   force =     0.00000000    0.00000000    0.00000000
     atom   34 type  2   force =     0.00000000    0.00000000    0.00000000
     atom   35 type  1   force =     0.00000010   -0.00008833   -0.00242185
     atom   36 type  1   force =    -0.00000010   -0.00008833   -0.00242185
     atom   37 type  1   force =     0.00000000   -0.00000000    0.01096141
     atom   38 type  1   force =     0.00000000    0.00000000    0.01096108
     atom   39 type  1   force =    -0.00000000   -0.00000000    0.01168525
     atom   40 type  1   force =     0.00000000    0.00000000    0.01168419
     The Hubbard contrib.    to forces
     atom    1 type  1   force =     0.00000000    0.00000000    0.00000000
     atom    2 type  1   force =     0.00000000    0.00000000    0.00000000
     atom    3 type  1   force =     0.00000000    0.00000000    0.00000000
     atom    4 type  1   force =     0.00000000    0.00000000    0.00000000
     atom    5 type  2   force =     0.00000000    0.00000000    0.00000000
     atom    6 type  2   force =     0.00000000    0.00000000    0.00000000
     atom    7 type  1   force =     0.00000000    0.00000000    0.00000000
     atom    8 type  1   force =     0.00000000    0.00000000    0.00000000
     atom    9 type  2   force =     0.00000000    0.00000000    0.00000000
     atom   10 type  2   force =     0.00000000    0.00000000    0.00000000
     atom   11 type  1   force =     0.00000000    0.00000000    0.00000000
     atom   12 type  1   force =     0.00000000    0.00000000    0.00000000
     atom   13 type  1   force =     0.00000000    0.00000000    0.00000000
     atom   14 type  1   force =     0.00000000    0.00000000    0.00000000
     atom   15 type  1   force =     0.00000000    0.00000000    0.00000000
     atom   16 type  1   force =     0.00000000    0.00000000    0.00000000
     atom   17 type  2   force =     0.00000000    0.00000000    0.00000000
     atom   18 type  2   force =     0.00000000    0.00000000    0.00000000
     atom   19 type  1   force =     0.00000000    0.00000000    0.00000000
     atom   20 type  1   force =     0.00000000    0.00000000    0.00000000
     atom   21 type  2   force =     0.00000000    0.00000000    0.00000000
     atom   22 type  2   force =     0.00000000    0.00000000    0.00000000
     atom   23 type  1   force =     0.00000000    0.00000000    0.00000000
     atom   24 type  1   force =     0.00000000    0.00000000    0.00000000
     atom   25 type  1   force =     0.00000000    0.00000000    0.00000000
     atom   26 type  1   force =     0.00000000    0.00000000    0.00000000
     atom   27 type  1   force =     0.00000000    0.00000000    0.00000000
     atom   28 type  1   force =     0.00000000    0.00000000    0.00000000
     atom   29 type  2   force =     0.00000000    0.00000000    0.00000000
     atom   30 type  2   force =     0.00000000    0.00000000    0.00000000
     atom   31 type  1   force =     0.00000000    0.00000000    0.00000000
     atom   32 type  1   force =     0.00000000    0.00000000    0.00000000
     atom   33 type  2   force =     0.00000000    0.00000000    0.00000000
     atom   34 type  2   force =     0.00000000    0.00000000    0.00000000
     atom   35 type  1   force =     0.00000000    0.00000000    0.00000000
     atom   36 type  1   force =     0.00000000    0.00000000    0.00000000
     atom   37 type  1   force =     0.00000000    0.00000000    0.00000000
     atom   38 type  1   force =     0.00000000    0.00000000    0.00000000
     atom   39 type  1   force =     0.00000000    0.00000000    0.00000000
     atom   40 type  1   force =     0.00000000    0.00000000    0.00000000
     The SCF correction term to forces
     atom    1 type  1   force =     0.00000000    0.00000000   -0.00000187
     atom    2 type  1   force =     0.00000000   -0.00000000   -0.00000174
     atom    3 type  1   force =    -0.00000000   -0.00000000   -0.00000120
     atom    4 type  1   force =    -0.00000000    0.00000000   -0.00000118
     atom    5 type  2   force =    -0.00000074   -0.00000000   -0.00000248
     atom    6 type  2   force =     0.00000074   -0.00000000   -0.00000248
     atom    7 type  1   force =    -0.00000042   -0.00000081    0.00000029
     atom    8 type  1   force =     0.00000042   -0.00000081    0.00000029
     atom    9 type  2   force =     0.00000000    0.00000000   -0.00000145
     atom   10 type  2   force =    -0.00000000   -0.00000000   -0.00000087
     atom   11 type  1   force =    -0.00000042    0.00000081    0.00000029
     atom   12 type  1   force =     0.00000042    0.00000081    0.00000029
     atom   13 type  1   force =     0.00000000    0.00000000    0.00000016
     atom   14 type  1   force =    -0.00000000    0.00000000    0.00000000
     atom   15 type  1   force =     0.00000000   -0.00000000   -0.00000010
     atom   16 type  1   force =    -0.00000000   -0.00000000   -0.00000032
     atom   17 type  2   force =    -0.00000000    0.00000000    0.00000001
     atom   18 type  2   force =     0.00000000    0.00000000    0.00000001
     atom   19 type  1   force =    -0.00000051   -0.00000096    0.00000000
     atom   20 type  1   force =     0.00000051   -0.00000096    0.00000000
     atom   21 type  2   force =    -0.00000189   -0.00000000    0.00000002
     atom   22 type  2   force =     0.00000189   -0.00000000    0.00000002
     atom   23 type  1   force =    -0.00000051    0.00000096    0.00000000
     atom   24 type  1   force =     0.00000051    0.00000096    0.00000000
     atom   25 type  1   force =    -0.00000000   -0.00000000    0.00000011
     atom   26 type  1   force =     0.00000000   -0.00000000    0.00000032
     atom   27 type  1   force =    -0.00000000    0.00000000   -0.00000015
     atom   28 type  1   force =    -0.00000000    0.00000000    0.00000001
     atom   29 type  2   force =    -0.00000075    0.00000000    0.00000249
     atom   30 type  2   force =     0.00000075    0.00000000    0.00000249
     atom   31 type  1   force =    -0.00000043   -0.00000083   -0.00000029
     atom   32 type  1   force =     0.00000043   -0.00000083   -0.00000029
     atom   33 type  2   force =     0.00000000   -0.00000000    0.00000145
     atom   34 type  2   force =     0.00000000   -0.00000000    0.00000088
     atom   35 type  1   force =    -0.00000043    0.00000083   -0.00000029
     atom   36 type  1   force =     0.00000043    0.00000083   -0.00000029
     atom   37 type  1   force =     0.00000000   -0.00000000    0.00000119
     atom   38 type  1   force =    -0.00000000    0.00000000    0.00000117
     atom   39 type  1   force =     0.00000000    0.00000000    0.00000187
     atom   40 type  1   force =    -0.00000000    0.00000000    0.00000174

     Total force =     0.000175     Total SCF correction =     0.000008
     Energy error            =      1.1E-07 Ry
     Gradient error          =      6.8E-05 Ry/Bohr

     bfgs converged in  23 scf cycles and  22 bfgs steps
     (criteria: energy <  1.0E-04 Ry, force <  1.0E-04 Ry/Bohr)

     End of BFGS Geometry Optimization

     Final energy             =   -3427.4862449586 Ry

     File /storage/home/mgm6007/ixd4/Maria/StrainJin_Files/RuO2-110-0-/RuO2-110-0-.bfgs deleted, as requested
Begin final coordinates

ATOMIC_POSITIONS (crystal)
O             0.0000000000        0.5000000000        0.2813118949
O             0.5000000000        0.5000000000        0.2813242374
O             0.0000000000        0.0000000000        0.3115905549
O             0.5000000000        0.0000000000        0.3115914641
Ru            0.2499989367       -0.0000000000        0.3575270462
Ru            0.7500010633        0.0000000000        0.3575270462
O             0.2499957593        0.3135507768        0.3642760268
O             0.7500042407        0.3135507768        0.3642760268
Ru            0.0000000000        0.5000000000        0.3566314590
Ru            0.5000000000        0.5000000000        0.3566439225
O             0.2499957593        0.6864492232        0.3642760268
O             0.7500042407        0.6864492232        0.3642760268
O             0.0000000000        0.0000000000        0.4139425404
O             0.5000000000        0.0000000000        0.4139423199
O             0.0000000000        0.5000000000        0.4469441816
O             0.5000000000        0.5000000000        0.4469481961
Ru            0.0000000000        0.0000000000        0.5000010000
Ru            0.5000000000        0.0000000000        0.5000010000
O             0.2500008806        0.1864869717        0.5000010000
O             0.7499991194        0.1864869717        0.5000010000
Ru            0.2499904767        0.5000000000        0.5000010000
Ru            0.7500095233        0.5000000000        0.5000010000
O             0.2500008806        0.8135140283        0.5000010000
O             0.7499991194        0.8135140283        0.5000010000
O             0.0000000000        0.5000000000        0.5530568184
O             0.5000000000        0.5000000000        0.5530528039
O             0.0000000000        0.0000000000        0.5860584596
O             0.5000000000        0.0000000000        0.5860586801
Ru            0.2499989367        0.0000000000        0.6424749538
Ru            0.7500010633       -0.0000000000        0.6424749538
O             0.2499957593        0.3135507768        0.6357259732
O             0.7500042407        0.3135507768        0.6357259732
Ru            0.0000000000        0.5000000000        0.6433705410
Ru            0.5000000000        0.5000000000        0.6433580775
O             0.2499957593        0.6864492232        0.6357259732
O             0.7500042407        0.6864492232        0.6357259732
O             0.0000000000        0.0000000000        0.6884104451
O             0.5000000000        0.0000000000        0.6884095359
O             0.0000000000        0.5000000000        0.7186891051
O             0.5000000000        0.5000000000        0.7186767626
End final coordinates

     Writing all to output data dir /storage/home/mgm6007/ixd4/Maria/StrainJin_Files/RuO2-110-0-/RuO2-110-0-.save/

     General routines

     Parallel routines

     PAW routines

     Environ routines

   This run was terminated on:  21:13:16  25Jul2023

   JOB DONE.