     Program PWSCF v.7.2 starts on 14Jul2023 at 10:37:38
        Git branch: heads/qe-7.2
        Last git commit: b4c5e8deeb7d1863e7553a87b45f8d22c21926a5
        Last git commit date: Mon Mar 27 16:12:09 2023 +0000
        Last git commit subject: Merge branch 'merge_fix_hubbard' into 'develop'

     Reading input from RuO2-110-0-2345.in

     Current dimensions of program PWSCF are:
     Max number of different atomic species (ntypx) = 10
     Max number of k-points (npk) =  40000
     Max angular momentum in pseudopotentials (lmaxx) =  4

     Reading input from environ.in:
     * Environ restarting
     * setting up water environment
     * using electronic solvent mode
     * setting boundary derivatives method to SCCS default

     file O.pbe-n-kjpaw_psl.0.1.UPF: wavefunction(s)  2P renormalized
     Found identity + ( -0.5000  0.0000  0.0000) symmetry
     This is a supercell, fractional translations are disabled
     Message from routine setup:
     using ibrav=0 with symmetry is DISCOURAGED, use correct ibrav instead

     R & G space division:  proc/nbgrp/npool/nimage =      20
     Subspace diagonalization in iterative solution of the eigenvalue problem:
     one sub-group per band group will be used

     Using Slab Decomposition

     bravais-lattice index     =            0
     lattice parameter (alat)  =      12.3893  a.u.
     unit-cell volume          =    5808.5831 (a.u.)^3
     number of atoms/cell      =           48
     number of atomic types    =            3
     number of electrons       =       368.00
     number of Kohn-Sham states=          221
     kinetic-energy cutoff     =      50.0000  Ry
     charge density cutoff     =     500.0000  Ry
     scf convergence threshold =      1.0E-10
     mixing beta               =       0.7000
     number of iterations used =            8  local-TF  mixing
     energy convergence thresh.=      1.0E-04
     force convergence thresh. =      1.0E-04
     Exchange-correlation= PBE
                           (   1   4   3   4   0   0   0)
     nstep                     =          200

                                  Environ Setup Summary

          O. Andreussi, I. Dabo and N. Marzari, J. Chem. Phys. 136, 064102 (2012)

     in publications or presentations arising from this work.

     Parameters

     compensation onset threshold      =               0.1000E+00
     static permittivity               =                    78.30
     surface tension in input (dyn/cm) =                    47.90
     surface tension in internal units =               0.6153E-04
     external pressure in input (GPa)  =                    -0.36
     external pressure in inter. units =              -0.2447E-04

     Solvent Boundary

     solvent mode                      =               electronic
     derivatives method                =                    chain
     numerical core for derivatives    =                      fft
     switching function adopted        =                     SCCS
     density limit for vacuum region   =               0.5000E-02
     density limit for bulk solvent    =               0.1000E-03

     Electrostatic Setup

     electrostatic problem to solve    =              generalized
     numerical solver adopted          =                       cg
     type of auxiliary density adopted =                     none
     numerical core for poisson        =                      fft
     type of pbc corrections           =                parabolic
     numerical core for corrections    =                      1da

     celldm(1)=  12.389316  celldm(2)=   0.000000  celldm(3)=   0.000000
     celldm(4)=   0.000000  celldm(5)=   0.000000  celldm(6)=   0.000000

     crystal axes: (cart. coord. in units of alat)
               a(1) = (   1.000000   0.000000   0.000000 )
               a(2) = (   0.000000   0.904766   0.000000 )
               a(3) = (   0.000000   0.000000   3.375918 )

     reciprocal axes: (cart. coord. in units 2 pi/alat)
               b(1) = (  1.000000  0.000000  0.000000 )
               b(2) = (  0.000000  1.105258  0.000000 )
               b(3) = (  0.000000  0.000000  0.296216 )

     PseudoPot. # 1 for O  read from file:
     /gpfs/group/ixd4/default/Simon/pseudopotentials/materialscloud/SSSP_1.3.0_PBE_efficiency/O.pbe-n-kjpaw_psl.0.1.UPF
     MD5 check sum: 0234752ac141de4415c5fc33072bef88
     Pseudo is Projector augmented-wave + core cor, Zval =  6.0
     Generated using "atomic" code by A. Dal Corso  v.5.0.99 svn rev. 10869
     Shape of augmentation charge: BESSEL
     Using radial grid of 1095 points,  4 beta functions with:
                l(1) =   0
                l(2) =   0
                l(3) =   1
                l(4) =   1
     Q(r) pseudized with 0 coefficients

     PseudoPot. # 2 for Ru read from file:
     /gpfs/group/ixd4/default/Simon/pseudopotentials/materialscloud/SSSP_1.3.0_PBE_efficiency/Ru_ONCV_PBE-1.0.oncvpsp.upf
     MD5 check sum: be037bb81c227cfb9b1461a9f099f4bd
     Pseudo is Norm-conserving, Zval = 16.0
     Generated using ONCVPSP code by D. R. Hamann
     Using radial grid of 1458 points,  6 beta functions with:
                l(1) =   0
                l(2) =   0
                l(3) =   1
                l(4) =   1
                l(5) =   2
                l(6) =   2

     PseudoPot. # 3 for H  read from file:
     /gpfs/group/ixd4/default/Simon/pseudopotentials/materialscloud/SSSP_1.3.0_PBE_efficiency/H.pbe-rrkjus_psl.1.0.0.UPF
     MD5 check sum: f52b6d4d1c606e5624b1dc7b2218f220
     Pseudo is Ultrasoft, Zval =  1.0
     Generated using "atomic" code by A. Dal Corso  v.5.1
     Using radial grid of  929 points,  2 beta functions with:
                l(1) =   0
                l(2) =   0
     Q(r) pseudized with 0 coefficients

     atomic species   valence    mass     pseudopotential
        O              6.00    15.99940     O ( 1.00)
        Ru            16.00   101.07000     Ru( 1.00)
        H              1.00     1.00794     H ( 1.00)

      8 Sym. Ops., with inversion, found

   Cartesian axes

     site n.     atom                  positions (alat units)
         1           O   tau(   1) = (   0.0000000   0.4523832   0.8804697  )
         2           O   tau(   2) = (   0.5000000   0.4523832   0.8804697  )
         3           O   tau(   3) = (   0.0000000   0.0000000   0.9930802  )
         4           O   tau(   4) = (   0.5000000   0.0000000   0.9930802  )
         5           Ru  tau(   5) = (   0.2500000   0.0000000   1.1871684  )
         6           Ru  tau(   6) = (   0.7500000   0.0000000   1.1871684  )
         7           O   tau(   7) = (   0.2500000   0.2770530   1.1871684  )
         8           O   tau(   8) = (   0.7500000   0.2770530   1.1871684  )
         9           Ru  tau(   9) = (   0.0000000   0.4523832   1.1871684  )
        10           Ru  tau(  10) = (   0.5000000   0.4523832   1.1871684  )
        11           O   tau(  11) = (   0.2500000   0.6277133   1.1871684  )
        12           O   tau(  12) = (   0.7500000   0.6277133   1.1871684  )
        13           O   tau(  13) = (   0.0000000   0.0000000   1.3812600  )
        14           O   tau(  14) = (   0.5000000   0.0000000   1.3812600  )
        15           O   tau(  15) = (   0.0000000   0.4523832   1.4938705  )
        16           O   tau(  16) = (   0.5000000   0.4523832   1.4938705  )
        17           Ru  tau(  17) = (   0.0000000   0.0000000   1.6879622  )
        18           Ru  tau(  18) = (   0.5000000   0.0000000   1.6879622  )
        19           O   tau(  19) = (   0.2500000   0.1753301   1.6879622  )
        20           O   tau(  20) = (   0.7500000   0.1753301   1.6879622  )
        21           Ru  tau(  21) = (   0.2500000   0.4523832   1.6879622  )
        22           Ru  tau(  22) = (   0.7500000   0.4523832   1.6879622  )
        23           O   tau(  23) = (   0.2500000   0.7294371   1.6879622  )
        24           O   tau(  24) = (   0.7500000   0.7294371   1.6879622  )
        25           O   tau(  25) = (   0.0000000   0.4523832   1.8820504  )
        26           O   tau(  26) = (   0.5000000   0.4523832   1.8820504  )
        27           O   tau(  27) = (   0.0000000   0.0000000   1.9946609  )
        28           O   tau(  28) = (   0.5000000   0.0000000   1.9946609  )
        29           Ru  tau(  29) = (   0.2500000   0.0000000   2.1887525  )
        30           Ru  tau(  30) = (   0.7500000   0.0000000   2.1887525  )
        31           O   tau(  31) = (   0.2500000   0.2770530   2.1887525  )
        32           O   tau(  32) = (   0.7500000   0.2770530   2.1887525  )
        33           Ru  tau(  33) = (   0.0000000   0.4523832   2.1887525  )
        34           Ru  tau(  34) = (   0.5000000   0.4523832   2.1887525  )
        35           O   tau(  35) = (   0.2500000   0.6277133   2.1887525  )
        36           O   tau(  36) = (   0.7500000   0.6277133   2.1887525  )
        37           O   tau(  37) = (   0.0000000   0.0000000   2.3828441  )
        38           O   tau(  38) = (   0.5000000   0.0000000   2.3828441  )
        39           O   tau(  39) = (   0.0000000   0.4523832   2.4954513  )
        40           O   tau(  40) = (   0.5000000   0.4523832   2.4954513  )
        41           H   tau(  41) = (   0.0000000   0.1033388   0.8786804  )
        42           H   tau(  42) = (   0.0000000   0.1033388   2.4972371  )
        43           H   tau(  43) = (   0.5000000   0.1033388   0.8786804  )
        44           H   tau(  44) = (   0.5000000   0.1033388   2.4972371  )
        45           H   tau(  45) = (   0.0000000   0.8014275   0.8786804  )
        46           H   tau(  46) = (   0.0000000   0.8014275   2.4972371  )
        47           H   tau(  47) = (   0.5000000   0.8014275   0.8786804  )
        48           H   tau(  48) = (   0.5000000   0.8014275   2.4972371  )

     number of k points=     1  Marzari-Vanderbilt smearing, width (Ry)=  0.0300
                       cart. coord. in units 2pi/alat
        k(    1) = (   0.2500000   0.2763144   0.0000000), wk =   2.0000000

     Check: negative core charge=   -0.000001

     Initial potential from superposition of free atoms

     starting charge     367.9933, renormalised to     368.0000

     add environment contribution to local potential
     Polarization accuracy = 6.6E-12, # of iterations =  19

     negative rho (up, down):  3.030E-05 0.000E+00
     Starting wfcs are  240 randomized atomic wfcs
     Checking if some PAW data can be deallocated...

     Self-consistent Calculation

     iteration #  1     ecut=    50.00 Ry     beta= 0.70
     Davidson diagonalization with overlap
     ethr =  1.00E-02,  avg # of iterations =  3.0

     total energy              =   -3434.44822929 Ry
     estimated scf accuracy    <       9.95929981 Ry
     electrostatic embedding   =      -0.00166963 Ry
     cavitation energy         =       0.01896651 Ry
     PV energy                 =      -0.08727924 Ry
     correction to one-el term =     224.68027432 Ry

[...]

     negative rho (up, down):  2.534E-08 0.000E+00

[...]

     the potential shift due to the Gaussian-smeared nuclei is    -1.3540 ev

     End of self-consistent calculation

[...]
     atom   27 type  1   force =     0.00000000    0.00000000  -38.58797873
     atom   28 type  1   force =    -0.00000000   -0.00000000  -38.58797832
     atom   29 type  2   force =    -0.00000026    0.00000000 -165.45612038
     atom   30 type  2   force =     0.00000026   -0.00000000 -165.45612038
     atom   31 type  1   force =    -0.00000023    0.35277397  -63.60436553
     atom   32 type  1   force =     0.00000023    0.35277397  -63.60436553
     atom   33 type  2   force =    -0.00000000   -0.00000000 -171.44564855
     atom   34 type  2   force =     0.00000000   -0.00000000 -171.44564872
     atom   35 type  1   force =    -0.00000023   -0.35277397  -63.60436553
     atom   36 type  1   force =     0.00000023   -0.35277397  -63.60436553
     atom   37 type  1   force =    -0.00000000    0.00000000  -90.52580382
     atom   38 type  1   force =     0.00000000   -0.00000000  -90.52580375
     atom   39 type  1   force =    -0.00000000   -0.00000000  -97.95408839
     atom   40 type  1   force =     0.00000000   -0.00000000  -97.95408756
     atom   41 type  3   force =     0.00000000   -2.14336324   16.89312548
     atom   42 type  3   force =    -0.00000000   -2.14336324  -16.89312548
     atom   43 type  3   force =    -0.00000000   -2.14336325   16.89312548
     atom   44 type  3   force =    -0.00000000   -2.14336325  -16.89312548
     atom   45 type  3   force =     0.00000000    2.14336324   16.89312548
     atom   46 type  3   force =    -0.00000000    2.14336324  -16.89312548
     atom   47 type  3   force =     0.00000000    2.14336325   16.89312548
     atom   48 type  3   force =     0.00000000    2.14336325  -16.89312548
     The core correction contribution to forces
     atom    1 type  1   force =    -0.00000000   -0.00000000   -0.00985465
     atom    2 type  1   force =     0.00000000   -0.00000000   -0.00985465
     atom    3 type  1   force =     0.00000000    0.00000000    0.01308284
     atom    4 type  1   force =    -0.00000000    0.00000000    0.01308284
     atom    5 type  2   force =     0.00000000    0.00000000    0.00000000
     atom    6 type  2   force =     0.00000000    0.00000000    0.00000000
     atom    7 type  1   force =     0.00000000    0.00021120    0.00040276
     atom    8 type  1   force =    -0.00000000    0.00021120    0.00040276
     atom    9 type  2   force =     0.00000000    0.00000000    0.00000000
     atom   10 type  2   force =     0.00000000    0.00000000    0.00000000
     atom   11 type  1   force =     0.00000000   -0.00021120    0.00040276
     atom   12 type  1   force =    -0.00000000   -0.00021120    0.00040276
     atom   13 type  1   force =     0.00000000    0.00000000    0.00232523
     atom   14 type  1   force =     0.00000000    0.00000000    0.00232523
     atom   15 type  1   force =     0.00000000   -0.00000000   -0.00193338
     atom   16 type  1   force =    -0.00000000   -0.00000000   -0.00193338
     atom   17 type  2   force =     0.00000000    0.00000000    0.00000000
     atom   18 type  2   force =     0.00000000    0.00000000    0.00000000
     atom   19 type  1   force =     0.00000000   -0.00031872   -0.00000200
     atom   20 type  1   force =    -0.00000000   -0.00031872   -0.00000200
     atom   21 type  2   force =     0.00000000    0.00000000    0.00000000
     atom   22 type  2   force =     0.00000000    0.00000000    0.00000000
     atom   23 type  1   force =     0.00000000    0.00031822   -0.00000200
     atom   24 type  1   force =    -0.00000000    0.00031822   -0.00000200
     atom   25 type  1   force =     0.00000000   -0.00000000    0.00193119
     atom   26 type  1   force =    -0.00000000   -0.00000000    0.00193119
     atom   27 type  1   force =    -0.00000000    0.00000000   -0.00232719
     atom   28 type  1   force =    -0.00000000    0.00000000   -0.00232719
     atom   29 type  2   force =     0.00000000    0.00000000    0.00000000
     atom   30 type  2   force =     0.00000000    0.00000000    0.00000000
     atom   31 type  1   force =     0.00000000    0.00021153   -0.00040446
     atom   32 type  1   force =    -0.00000000    0.00021153   -0.00040446
     atom   33 type  2   force =     0.00000000    0.00000000    0.00000000
     atom   34 type  2   force =     0.00000000    0.00000000    0.00000000
     atom   35 type  1   force =     0.00000000   -0.00021153   -0.00040446
     atom   36 type  1   force =    -0.00000000   -0.00021153   -0.00040446
     atom   37 type  1   force =     0.00000000    0.00000000   -0.01308695
     atom   38 type  1   force =     0.00000000    0.00000000   -0.01308695
     atom   39 type  1   force =     0.00000000   -0.00000000    0.00985231
     atom   40 type  1   force =     0.00000000   -0.00000000    0.00985231
     atom   41 type  3   force =     0.00000000    0.00000000    0.00000000
     atom   42 type  3   force =     0.00000000    0.00000000    0.00000000
     atom   43 type  3   force =     0.00000000    0.00000000    0.00000000
     atom   44 type  3   force =     0.00000000    0.00000000    0.00000000
     atom   45 type  3   force =     0.00000000    0.00000000    0.00000000
     atom   46 type  3   force =     0.00000000    0.00000000    0.00000000
     atom   47 type  3   force =     0.00000000    0.00000000    0.00000000
     atom   48 type  3   force =     0.00000000    0.00000000    0.00000000
     The Hubbard contrib.    to forces
     atom    1 type  1   force =     0.00000000    0.00000000    0.00000000
     atom    2 type  1   force =     0.00000000    0.00000000    0.00000000
     atom    3 type  1   force =     0.00000000    0.00000000    0.00000000
     atom    4 type  1   force =     0.00000000    0.00000000    0.00000000
     atom    5 type  2   force =     0.00000000    0.00000000    0.00000000
     atom    6 type  2   force =     0.00000000    0.00000000    0.00000000
     atom    7 type  1   force =     0.00000000    0.00000000    0.00000000
     atom    8 type  1   force =     0.00000000    0.00000000    0.00000000
     atom    9 type  2   force =     0.00000000    0.00000000    0.00000000
     atom   10 type  2   force =     0.00000000    0.00000000    0.00000000
     atom   11 type  1   force =     0.00000000    0.00000000    0.00000000
     atom   12 type  1   force =     0.00000000    0.00000000    0.00000000
     atom   13 type  1   force =     0.00000000    0.00000000    0.00000000
     atom   14 type  1   force =     0.00000000    0.00000000    0.00000000
     atom   15 type  1   force =     0.00000000    0.00000000    0.00000000
     atom   16 type  1   force =     0.00000000    0.00000000    0.00000000
     atom   17 type  2   force =     0.00000000    0.00000000    0.00000000
     atom   18 type  2   force =     0.00000000    0.00000000    0.00000000
     atom   19 type  1   force =     0.00000000    0.00000000    0.00000000
     atom   20 type  1   force =     0.00000000    0.00000000    0.00000000
     atom   21 type  2   force =     0.00000000    0.00000000    0.00000000
     atom   22 type  2   force =     0.00000000    0.00000000    0.00000000
     atom   23 type  1   force =     0.00000000    0.00000000    0.00000000
     atom   24 type  1   force =     0.00000000    0.00000000    0.00000000
     atom   25 type  1   force =     0.00000000    0.00000000    0.00000000
     atom   26 type  1   force =     0.00000000    0.00000000    0.00000000
     atom   27 type  1   force =     0.00000000    0.00000000    0.00000000
     atom   28 type  1   force =     0.00000000    0.00000000    0.00000000
     atom   29 type  2   force =     0.00000000    0.00000000    0.00000000
     atom   30 type  2   force =     0.00000000    0.00000000    0.00000000
     atom   31 type  1   force =     0.00000000    0.00000000    0.00000000
     atom   32 type  1   force =     0.00000000    0.00000000    0.00000000
     atom   33 type  2   force =     0.00000000    0.00000000    0.00000000
     atom   34 type  2   force =     0.00000000    0.00000000    0.00000000
     atom   35 type  1   force =     0.00000000    0.00000000    0.00000000
     atom   36 type  1   force =     0.00000000    0.00000000    0.00000000
     atom   37 type  1   force =     0.00000000    0.00000000    0.00000000
     atom   38 type  1   force =     0.00000000    0.00000000    0.00000000
     atom   39 type  1   force =     0.00000000    0.00000000    0.00000000
     atom   40 type  1   force =     0.00000000    0.00000000    0.00000000
     atom   41 type  3   force =     0.00000000    0.00000000    0.00000000
     atom   42 type  3   force =     0.00000000    0.00000000    0.00000000
     atom   43 type  3   force =     0.00000000    0.00000000    0.00000000
     atom   44 type  3   force =     0.00000000    0.00000000    0.00000000
     atom   45 type  3   force =     0.00000000    0.00000000    0.00000000
     atom   46 type  3   force =     0.00000000    0.00000000    0.00000000
     atom   47 type  3   force =     0.00000000    0.00000000    0.00000000
     atom   48 type  3   force =     0.00000000    0.00000000    0.00000000
     The SCF correction term to forces
     atom    1 type  1   force =    -0.00000000   -0.00000000    0.00000021
     atom    2 type  1   force =     0.00000000   -0.00000000    0.00000045
     atom    3 type  1   force =     0.00000000    0.00000000    0.00000011
     atom    4 type  1   force =     0.00000000    0.00000000    0.00000017
     atom    5 type  2   force =     0.00000043    0.00000000   -0.00000013
     atom    6 type  2   force =    -0.00000043    0.00000000   -0.00000013
     atom    7 type  1   force =     0.00000030   -0.00000020   -0.00000005
     atom    8 type  1   force =    -0.00000030   -0.00000020   -0.00000005
     atom    9 type  2   force =    -0.00000000   -0.00000000    0.00000028
     atom   10 type  2   force =     0.00000000   -0.00000000    0.00000018
     atom   11 type  1   force =     0.00000030    0.00000020   -0.00000005
     atom   12 type  1   force =    -0.00000030    0.00000020   -0.00000005
     atom   13 type  1   force =     0.00000000    0.00000000   -0.00000049
     atom   14 type  1   force =     0.00000000    0.00000000    0.00000005
     atom   15 type  1   force =     0.00000000   -0.00000000   -0.00000006
     atom   16 type  1   force =    -0.00000000   -0.00000000   -0.00000015
     atom   17 type  2   force =     0.00000000    0.00000000   -0.00000003
     atom   18 type  2   force =     0.00000000    0.00000000   -0.00000003
     atom   19 type  1   force =     0.00000060   -0.00000008   -0.00000001
     atom   20 type  1   force =    -0.00000060   -0.00000008   -0.00000001
     atom   21 type  2   force =     0.00000064   -0.00000000   -0.00000003
     atom   22 type  2   force =    -0.00000064   -0.00000000   -0.00000003
     atom   23 type  1   force =     0.00000060    0.00000008   -0.00000001
     atom   24 type  1   force =    -0.00000060    0.00000008   -0.00000001
     atom   25 type  1   force =     0.00000000   -0.00000000    0.00000004
     atom   26 type  1   force =     0.00000000   -0.00000000    0.00000013
     atom   27 type  1   force =    -0.00000000    0.00000000    0.00000047
     atom   28 type  1   force =     0.00000000    0.00000000   -0.00000007
     atom   29 type  2   force =     0.00000043    0.00000000    0.00000011
     atom   30 type  2   force =    -0.00000043    0.00000000    0.00000011
     atom   31 type  1   force =     0.00000030   -0.00000020    0.00000004
     atom   32 type  1   force =    -0.00000030   -0.00000020    0.00000004
     atom   33 type  2   force =    -0.00000000   -0.00000000   -0.00000031
     atom   34 type  2   force =    -0.00000000   -0.00000000   -0.00000020
     atom   35 type  1   force =     0.00000030    0.00000020    0.00000004
     atom   36 type  1   force =    -0.00000030    0.00000020    0.00000004
     atom   37 type  1   force =    -0.00000000    0.00000000   -0.00000011
     atom   38 type  1   force =     0.00000000    0.00000000   -0.00000017
     atom   39 type  1   force =    -0.00000000    0.00000000   -0.00000021
     atom   40 type  1   force =     0.00000000    0.00000000   -0.00000045
     atom   41 type  3   force =     0.00000000   -0.00000005    0.00000003
     atom   42 type  3   force =    -0.00000000   -0.00000005   -0.00000003
     atom   43 type  3   force =     0.00000000   -0.00000003    0.00000005
     atom   44 type  3   force =     0.00000000   -0.00000003   -0.00000005
     atom   45 type  3   force =     0.00000000    0.00000005    0.00000003
     atom   46 type  3   force =    -0.00000000    0.00000005   -0.00000003
     atom   47 type  3   force =     0.00000000    0.00000003    0.00000005
     atom   48 type  3   force =     0.00000000    0.00000003   -0.00000005

     Total force =     0.000145     Total SCF correction =     0.000002
     Energy error            =      1.0E-07 Ry
     Gradient error          =      4.7E-05 Ry/Bohr

     bfgs converged in  26 scf cycles and  25 bfgs steps
     (criteria: energy <  1.0E-04 Ry, force <  1.0E-04 Ry/Bohr)

     End of BFGS Geometry Optimization

     Final energy             =   -3437.3739272065 Ry

     File /storage/home/mgm6007/ixd4/Maria/Strain1_Files/RuO2-110-0-2345/RuO2-110-0-2345.bfgs deleted, as requested
Begin final coordinates

ATOMIC_POSITIONS (crystal)
O             0.0000000000        0.5000000000        0.2687095957
O             0.5000000000        0.5000000000        0.2687095937
O             0.0000000000        0.0000000000        0.2908490332
O             0.5000000000        0.0000000000        0.2908490349
Ru            0.2499999996        0.0000000000        0.3609261883
Ru            0.7500000004       -0.0000000000        0.3609261883
O             0.2500000015        0.3111640553        0.3548993987
O             0.7499999985        0.3111640553        0.3548993987
Ru            0.0000000000        0.5000000000        0.3501462196
Ru            0.5000000000        0.5000000000        0.3501462193
O             0.2500000015        0.6888359447        0.3548993987
O             0.7499999985        0.6888359447        0.3548993987
O             0.0000000000        0.0000000000        0.4126156839
O             0.5000000000        0.0000000000        0.4126156845
O             0.0000000000        0.5000000000        0.4440367081
O             0.5000000000        0.5000000000        0.4440367115
Ru            0.0000000000        0.0000000000        0.5000010000
Ru            0.5000000000        0.0000000000        0.5000010000
O             0.2500000007        0.1866198295        0.5000010000
O             0.7499999993        0.1866198295        0.5000010000
Ru            0.2499999989        0.5000000000        0.5000010000
Ru            0.7500000011        0.5000000000        0.5000010000
O             0.2500000007        0.8133811705        0.5000010000
O             0.7499999993        0.8133811705        0.5000010000
O             0.0000000000        0.5000000000        0.5559642919
O             0.5000000000        0.5000000000        0.5559642885
O             0.0000000000        0.0000000000        0.5873853161
O             0.5000000000        0.0000000000        0.5873853155
Ru            0.2499999996       -0.0000000000        0.6390748117
Ru            0.7500000004        0.0000000000        0.6390748117
O             0.2500000015        0.3111640553        0.6451016013
O             0.7499999985        0.3111640553        0.6451016013
Ru            0.0000000000        0.5000000000        0.6498547804
Ru            0.5000000000        0.5000000000        0.6498547807
O             0.2500000015        0.6888359447        0.6451016013
O             0.7499999985        0.6888359447        0.6451016013
O             0.0000000000        0.0000000000        0.7091529668
O             0.5000000000        0.0000000000        0.7091529651
O             0.0000000000        0.5000000000        0.7312914043
O             0.5000000000        0.5000000000        0.7312914063
H             0.0000000000        0.1378937069        0.2655200191
H            -0.0000000000        0.1378937069        0.7344799809
H             0.5000000000        0.1378937073        0.2655200209
H             0.5000000000        0.1378937073        0.7344799791
H             0.0000000000        0.8621062931        0.2655200191
H             0.0000000000        0.8621062931        0.7344799809
H             0.5000000000        0.8621062927        0.2655200209
H             0.5000000000        0.8621062927        0.7344799791
End final coordinates

     Writing all to output data dir /storage/home/mgm6007/ixd4/Maria/Strain1_Files/RuO2-110-0-2345/RuO2-110-0-2345.save/

     General routines

     Parallel routines

     Environ routines

   This run was terminated on:  23: 0:28  15Jul2023

   JOB DONE.