     Program PWSCF v.7.2 starts on 18Jul2023 at 16:14: 3
        Git branch: heads/qe-7.2
        Last git commit: b4c5e8deeb7d1863e7553a87b45f8d22c21926a5
        Last git commit date: Mon Mar 27 16:12:09 2023 +0000
        Last git commit subject: Merge branch 'merge_fix_hubbard' into 'develop'

     Reading input from RuO2-110-0-01.in

     Current dimensions of program PWSCF are:
     Max number of different atomic species (ntypx) = 10
     Max number of k-points (npk) =  40000
     Max angular momentum in pseudopotentials (lmaxx) =  4

     Reading input from environ.in:
     * Environ restarting
     * setting up water environment
     * using electronic solvent mode
     * setting boundary derivatives method to SCCS default

     file O.pbe-n-kjpaw_psl.0.1.UPF: wavefunction(s)  2P renormalized
     Found identity + ( -0.5000  0.0000 -0.0000) symmetry
     This is a supercell, fractional translations are disabled
     Message from routine setup:
     using ibrav=0 with symmetry is DISCOURAGED, use correct ibrav instead

     R & G space division:  proc/nbgrp/npool/nimage =      20
     Subspace diagonalization in iterative solution of the eigenvalue problem:
     one sub-group per band group will be used

     Using Slab Decomposition

     bravais-lattice index     =            0
     lattice parameter (alat)  =      12.1041  a.u.
     unit-cell volume          =    5954.5483 (a.u.)^3
     number of atoms/cell      =           44
     number of atomic types    =            3
     number of electrons       =       364.00
     number of Kohn-Sham states=          218
     kinetic-energy cutoff     =      50.0000  Ry
     charge density cutoff     =     500.0000  Ry
     scf convergence threshold =      1.0E-09
     mixing beta               =       0.7000
     number of iterations used =            8  local-TF  mixing
     energy convergence thresh.=      1.0E-04
     force convergence thresh. =      1.0E-04
     Exchange-correlation= PBE
                           (   1   4   3   4   0   0   0)
     nstep                     =          200

                                  Environ Setup Summary

          O. Andreussi, I. Dabo and N. Marzari, J. Chem. Phys. 136, 064102 (2012)

     in publications or presentations arising from this work.

     Parameters

     compensation onset threshold      =               0.1000E+00
     static permittivity               =                    78.30
     surface tension in input (dyn/cm) =                    47.90
     surface tension in internal units =               0.6153E-04
     external pressure in input (GPa)  =                    -0.36
     external pressure in inter. units =              -0.2447E-04

     Solvent Boundary

     solvent mode                      =               electronic
     derivatives method                =                    chain
     numerical core for derivatives    =                      fft
     switching function adopted        =                     SCCS
     density limit for vacuum region   =               0.5000E-02
     density limit for bulk solvent    =               0.1000E-03

     Electrostatic Setup

     electrostatic problem to solve    =              generalized
     numerical solver adopted          =                       cg
     type of auxiliary density adopted =                     none
     numerical core for poisson        =                      fft
     type of pbc corrections           =                parabolic
     numerical core for corrections    =                      1da

     celldm(1)=  12.104053  celldm(2)=   0.000000  celldm(3)=   0.000000
     celldm(4)=   0.000000  celldm(5)=   0.000000  celldm(6)=   0.000000

     crystal axes: (cart. coord. in units of alat)
               a(1) = (   1.000000   0.000000   0.000000 )
               a(2) = (   0.000000   0.971735   0.000000 )
               a(3) = (   0.000000   0.000000   3.455479 )

     reciprocal axes: (cart. coord. in units 2 pi/alat)
               b(1) = (  1.000000  0.000000  0.000000 )
               b(2) = (  0.000000  1.029087  0.000000 )
               b(3) = (  0.000000  0.000000  0.289395 )

     PseudoPot. # 1 for O  read from file:
     /gpfs/group/ixd4/default/Simon/pseudopotentials/materialscloud/SSSP_1.3.0_PBE_efficiency/O.pbe-n-kjpaw_psl.0.1.UPF
     MD5 check sum: 0234752ac141de4415c5fc33072bef88
     Pseudo is Projector augmented-wave + core cor, Zval =  6.0
     Generated using "atomic" code by A. Dal Corso  v.5.0.99 svn rev. 10869
     Shape of augmentation charge: BESSEL
     Using radial grid of 1095 points,  4 beta functions with:
                l(1) =   0
                l(2) =   0
                l(3) =   1
                l(4) =   1
     Q(r) pseudized with 0 coefficients

     PseudoPot. # 2 for Ru read from file:
     /gpfs/group/ixd4/default/Simon/pseudopotentials/materialscloud/SSSP_1.3.0_PBE_efficiency/Ru_ONCV_PBE-1.0.oncvpsp.upf
     MD5 check sum: be037bb81c227cfb9b1461a9f099f4bd
     Pseudo is Norm-conserving, Zval = 16.0
     Generated using ONCVPSP code by D. R. Hamann
     Using radial grid of 1458 points,  6 beta functions with:
                l(1) =   0
                l(2) =   0
                l(3) =   1
                l(4) =   1
                l(5) =   2
                l(6) =   2

     PseudoPot. # 3 for H  read from file:
     /gpfs/group/ixd4/default/Simon/pseudopotentials/materialscloud/SSSP_1.3.0_PBE_efficiency/H.pbe-rrkjus_psl.1.0.0.UPF
     MD5 check sum: f52b6d4d1c606e5624b1dc7b2218f220
     Pseudo is Ultrasoft, Zval =  1.0
     Generated using "atomic" code by A. Dal Corso  v.5.1
     Using radial grid of  929 points,  2 beta functions with:
                l(1) =   0
                l(2) =   0
     Q(r) pseudized with 0 coefficients

     atomic species   valence    mass     pseudopotential
        O              6.00    15.99940     O ( 1.00)
        Ru            16.00   101.07000     Ru( 1.00)
        H              1.00     1.00794     H ( 1.00)

      4 Sym. Ops. (no inversion) found

   Cartesian axes

     site n.     atom                  positions (alat units)
         1           O   tau(   1) = (  -0.0094134   0.4858677   0.9372339  )
         2           O   tau(   2) = (   0.4905867   0.4858677   0.9372326  )
         3           O   tau(   3) = (  -0.0013620   0.0000000   1.0620342  )
         4           O   tau(   4) = (   0.4986380   0.0000000   1.0620343  )
         5           Ru  tau(   5) = (   0.2484598   0.0000000   1.2242810  )
         6           Ru  tau(   6) = (   0.7484599   0.0000000   1.2242811  )
         7           O   tau(   7) = (   0.2475050   0.3001945   1.2354772  )
         8           O   tau(   8) = (   0.7475051   0.3001944   1.2354772  )
         9           Ru  tau(   9) = (  -0.0033462   0.4858677   1.2353377  )
        10           Ru  tau(  10) = (   0.4966540   0.4858677   1.2353361  )
        11           O   tau(  11) = (   0.2475050   0.6715409   1.2354772  )
        12           O   tau(  12) = (   0.7475051   0.6715410   1.2354772  )
        13           O   tau(  13) = (  -0.0007368   0.0000000   1.4250651  )
        14           O   tau(  14) = (   0.4992628   0.0000000   1.4250651  )
        15           O   tau(  15) = (   0.0064095   0.4858677   1.5360794  )
        16           O   tau(  16) = (   0.5064096   0.4858677   1.5360765  )
        17           Ru  tau(  17) = (   0.0008011   0.0000000   1.7277432  )
        18           Ru  tau(  18) = (   0.5008004   0.0000000   1.7277432  )
        19           O   tau(  19) = (   0.2511985   0.1881412   1.7277432  )
        20           O   tau(  20) = (   0.7511981   0.1881403   1.7277432  )
        21           Ru  tau(  21) = (   0.2517502   0.4858677   1.7277432  )
        22           Ru  tau(  22) = (   0.7517481   0.4858677   1.7277432  )
        23           O   tau(  23) = (   0.2511985   0.7835952   1.7277432  )
        24           O   tau(  24) = (   0.7511981   0.7835961   1.7277432  )
        25           O   tau(  25) = (   0.0064095   0.4858677   1.9194035  )
        26           O   tau(  26) = (   0.5064096   0.4858677   1.9194065  )
        27           O   tau(  27) = (  -0.0007368   0.0000000   2.0304178  )
        28           O   tau(  28) = (   0.4992628   0.0000000   2.0304178  )
        29           Ru  tau(  29) = (   0.2484598   0.0000000   2.2312020  )
        30           Ru  tau(  30) = (   0.7484599   0.0000000   2.2312019  )
        31           O   tau(  31) = (   0.2475050   0.3001945   2.2200057  )
        32           O   tau(  32) = (   0.7475051   0.3001944   2.2200058  )
        33           Ru  tau(  33) = (  -0.0033462   0.4858677   2.2201453  )
        34           Ru  tau(  34) = (   0.4966540   0.4858677   2.2201468  )
        35           O   tau(  35) = (   0.2475050   0.6715409   2.2200057  )
        36           O   tau(  36) = (   0.7475051   0.6715410   2.2200058  )
        37           O   tau(  37) = (  -0.0013620   0.0000000   2.3934522  )
        38           O   tau(  38) = (   0.4986380   0.0000000   2.3934521  )
        39           O   tau(  39) = (  -0.0094134   0.4858677   2.5182491  )
        40           O   tau(  40) = (   0.4905867   0.4858677   2.5182504  )
        41           H   tau(  41) = (   0.1301407   0.4858677   0.8724011  )
        42           H   tau(  42) = (   0.1301407   0.4858677   2.5830784  )
        43           H   tau(  43) = (   0.6301408   0.4858677   0.8724001  )
        44           H   tau(  44) = (   0.6301408   0.4858677   2.5830794  )

     number of k points=     1  Marzari-Vanderbilt smearing, width (Ry)=  0.0300
                       cart. coord. in units 2pi/alat
        k(    1) = (   0.2500000   0.2572717   0.0000000), wk =   2.0000000

     Check: negative core charge=   -0.000001

     Initial potential from superposition of free atoms

     starting charge     363.9933, renormalised to     364.0000

     add environment contribution to local potential
     Polarization accuracy = 8.7E-12, # of iterations =  21

     negative rho (up, down):  2.915E-05 0.000E+00
     Starting wfcs are  236 randomized atomic wfcs
     Checking if some PAW data can be deallocated...

     Self-consistent Calculation

     iteration #  1     ecut=    50.00 Ry     beta= 0.70
     Davidson diagonalization with overlap
     ethr =  1.00E-02,  avg # of iterations =  2.0

     negative rho (up, down):  4.354E-08 0.000E+00

     total energy              =   -3430.19554598 Ry
     estimated scf accuracy    <      10.29680792 Ry
     electrostatic embedding   =      -0.00186463 Ry
     cavitation energy         =       0.02014220 Ry
     PV energy                 =      -0.08458451 Ry
     correction to one-el term =     212.90162433 Ry

[...]

     the potential shift due to the Gaussian-smeared nuclei is    -1.3065 ev

     End of self-consistent calculation

          k = 0.2500 0.2573 0.0000 ( 35510 PWs)   bands (ev):

   -78.6043 -78.5990 -78.5913 -78.5860 -78.1874 -78.1824 -78.1742 -78.1692
   -78.0111 -78.0061 -77.9205 -77.9156 -48.6856 -48.6842 -48.6791 -48.6726
   -48.6713 -48.6661 -48.5795 -48.5666 -48.5098 -48.5035 -48.4966 -48.4904
[...]
     atom    8 type  1   force =    -0.01324583    2.05896745   62.54502448
     atom    9 type  2   force =     0.05213659   -0.00000000  166.67018870
     atom   10 type  2   force =     0.05234668    0.00000000  166.67271378
     atom   11 type  1   force =    -0.01316214   -2.05893512   62.54497882
     atom   12 type  1   force =    -0.01324583   -2.05896745   62.54502448
     atom   13 type  1   force =     0.05714446    0.00000000   37.50086818
     atom   14 type  1   force =     0.05714405   -0.00000000   37.50091377
     atom   15 type  1   force =     0.17785467   -0.00000000   25.37560704
     atom   16 type  1   force =     0.17779327    0.00000000   25.37625840
     atom   17 type  2   force =    -0.01864170    0.00000000   -0.00585857
     atom   18 type  2   force =    -0.01857926    0.00000000   -0.00585857
     atom   19 type  1   force =    -0.01012743   -1.19543530   -0.00243970
     atom   20 type  1   force =    -0.01037535   -1.19547977   -0.00243970
     atom   21 type  2   force =    -0.56058931   -0.00000000   -0.00597516
     atom   22 type  2   force =    -0.56056922   -0.00000000   -0.00597517
     atom   23 type  1   force =    -0.01012746    1.19506890   -0.00243970
     atom   24 type  1   force =    -0.01037538    1.19511337   -0.00243970
     atom   25 type  1   force =     0.17783908   -0.00000000  -25.37734334
     atom   26 type  1   force =     0.17777769    0.00000000  -25.37799468
     atom   27 type  1   force =     0.05714520   -0.00000000  -37.50260256
     atom   28 type  1   force =     0.05714479    0.00000000  -37.50264815
     atom   29 type  2   force =    -0.08460662   -0.00000000 -172.65986674
     atom   30 type  2   force =    -0.08468137   -0.00000000 -172.65988089
     atom   31 type  1   force =    -0.01316020    2.05892060  -62.54741446
     atom   32 type  1   force =    -0.01324389    2.05895293  -62.54746012
     atom   33 type  2   force =     0.05212375    0.00000000 -166.67598987
     atom   34 type  2   force =     0.05233384    0.00000000 -166.67851493
     atom   35 type  1   force =    -0.01316020   -2.05892060  -62.54741446
     atom   36 type  1   force =    -0.01324389   -2.05895293  -62.54746012
     atom   37 type  1   force =     0.01611460   -0.00000000  -92.07719891
     atom   38 type  1   force =     0.01613141    0.00000000  -92.07716928
     atom   39 type  1   force =     1.08944811    0.00000000  -94.31704859
     atom   40 type  1   force =     1.08967865   -0.00000000  -94.31692124
     atom   41 type  3   force =    -2.67255584    0.00000000   16.27687078
     atom   42 type  3   force =    -2.67255584    0.00000000  -16.27687078
     atom   43 type  3   force =    -2.67273902    0.00000000   16.27693147
     atom   44 type  3   force =    -2.67273902   -0.00000000  -16.27693147
     The core correction contribution to forces
     atom    1 type  1   force =    -0.01754935    0.00000000   -0.00324977
     atom    2 type  1   force =    -0.01754858    0.00000000   -0.00324993
     atom    3 type  1   force =    -0.00004349   -0.00000000   -0.01080991
     atom    4 type  1   force =    -0.00004349    0.00000000   -0.01080988
     atom    5 type  2   force =     0.00000000    0.00000000    0.00000000
     atom    6 type  2   force =     0.00000000    0.00000000    0.00000000
     atom    7 type  1   force =     0.00013033    0.00023305   -0.00008801
     atom    8 type  1   force =     0.00013035    0.00023303   -0.00008810
     atom    9 type  2   force =     0.00000000    0.00000000    0.00000000
     atom   10 type  2   force =     0.00000000    0.00000000    0.00000000
     atom   11 type  1   force =     0.00013033   -0.00023305   -0.00008801
     atom   12 type  1   force =     0.00013035   -0.00023303   -0.00008810
     atom   13 type  1   force =    -0.00007473   -0.00000000   -0.00032317
     atom   14 type  1   force =    -0.00007473   -0.00000000   -0.00032319
     atom   15 type  1   force =    -0.00003546   -0.00000000   -0.00080587
     atom   16 type  1   force =    -0.00003569   -0.00000000   -0.00080657
     atom   17 type  2   force =     0.00000000    0.00000000    0.00000000
     atom   18 type  2   force =     0.00000000    0.00000000    0.00000000
     atom   19 type  1   force =    -0.00006867    0.00028411   -0.00000202
     atom   20 type  1   force =    -0.00006837    0.00028411   -0.00000202
     atom   21 type  2   force =     0.00000000    0.00000000    0.00000000
     atom   22 type  2   force =     0.00000000    0.00000000    0.00000000
     atom   23 type  1   force =    -0.00006867   -0.00028471   -0.00000202
     atom   24 type  1   force =    -0.00006837   -0.00028471   -0.00000202
     atom   25 type  1   force =    -0.00003550   -0.00000000    0.00080376
     atom   26 type  1   force =    -0.00003574   -0.00000000    0.00080446
     atom   27 type  1   force =    -0.00007473   -0.00000000    0.00032078
     atom   28 type  1   force =    -0.00007473   -0.00000000    0.00032081
     atom   29 type  2   force =     0.00000000    0.00000000    0.00000000
     atom   30 type  2   force =     0.00000000    0.00000000    0.00000000
     atom   31 type  1   force =     0.00013036    0.00023296    0.00008620
     atom   32 type  1   force =     0.00013038    0.00023294    0.00008629
     atom   33 type  2   force =     0.00000000    0.00000000    0.00000000
     atom   34 type  2   force =     0.00000000    0.00000000    0.00000000
     atom   35 type  1   force =     0.00013036   -0.00023296    0.00008620
     atom   36 type  1   force =     0.00013038   -0.00023294    0.00008629
     atom   37 type  1   force =    -0.00004348    0.00000000    0.01080525
     atom   38 type  1   force =    -0.00004348   -0.00000000    0.01080522
     atom   39 type  1   force =    -0.01755011   -0.00000000    0.00324738
     atom   40 type  1   force =    -0.01754935   -0.00000000    0.00324754
     atom   41 type  3   force =     0.00000000    0.00000000    0.00000000
     atom   42 type  3   force =     0.00000000    0.00000000    0.00000000
     atom   43 type  3   force =     0.00000000    0.00000000    0.00000000
     atom   44 type  3   force =     0.00000000    0.00000000    0.00000000
     The Hubbard contrib.    to forces
     atom    1 type  1   force =     0.00000000    0.00000000    0.00000000
     atom    2 type  1   force =     0.00000000    0.00000000    0.00000000
     atom    3 type  1   force =     0.00000000    0.00000000    0.00000000
     atom    4 type  1   force =     0.00000000    0.00000000    0.00000000
     atom    5 type  2   force =     0.00000000    0.00000000    0.00000000
     atom    6 type  2   force =     0.00000000    0.00000000    0.00000000
     atom    7 type  1   force =     0.00000000    0.00000000    0.00000000
     atom    8 type  1   force =     0.00000000    0.00000000    0.00000000
     atom    9 type  2   force =     0.00000000    0.00000000    0.00000000
     atom   10 type  2   force =     0.00000000    0.00000000    0.00000000
     atom   11 type  1   force =     0.00000000    0.00000000    0.00000000
     atom   12 type  1   force =     0.00000000    0.00000000    0.00000000
     atom   13 type  1   force =     0.00000000    0.00000000    0.00000000
     atom   14 type  1   force =     0.00000000    0.00000000    0.00000000
     atom   15 type  1   force =     0.00000000    0.00000000    0.00000000
     atom   16 type  1   force =     0.00000000    0.00000000    0.00000000
     atom   17 type  2   force =     0.00000000    0.00000000    0.00000000
     atom   18 type  2   force =     0.00000000    0.00000000    0.00000000
     atom   19 type  1   force =     0.00000000    0.00000000    0.00000000
     atom   20 type  1   force =     0.00000000    0.00000000    0.00000000
     atom   21 type  2   force =     0.00000000    0.00000000    0.00000000
     atom   22 type  2   force =     0.00000000    0.00000000    0.00000000
     atom   23 type  1   force =     0.00000000    0.00000000    0.00000000
     atom   24 type  1   force =     0.00000000    0.00000000    0.00000000
     atom   25 type  1   force =     0.00000000    0.00000000    0.00000000
     atom   26 type  1   force =     0.00000000    0.00000000    0.00000000
     atom   27 type  1   force =     0.00000000    0.00000000    0.00000000
     atom   28 type  1   force =     0.00000000    0.00000000    0.00000000
     atom   29 type  2   force =     0.00000000    0.00000000    0.00000000
     atom   30 type  2   force =     0.00000000    0.00000000    0.00000000
     atom   31 type  1   force =     0.00000000    0.00000000    0.00000000
     atom   32 type  1   force =     0.00000000    0.00000000    0.00000000
     atom   33 type  2   force =     0.00000000    0.00000000    0.00000000
     atom   34 type  2   force =     0.00000000    0.00000000    0.00000000
     atom   35 type  1   force =     0.00000000    0.00000000    0.00000000
     atom   36 type  1   force =     0.00000000    0.00000000    0.00000000
     atom   37 type  1   force =     0.00000000    0.00000000    0.00000000
     atom   38 type  1   force =     0.00000000    0.00000000    0.00000000
     atom   39 type  1   force =     0.00000000    0.00000000    0.00000000
     atom   40 type  1   force =     0.00000000    0.00000000    0.00000000
     atom   41 type  3   force =     0.00000000    0.00000000    0.00000000
     atom   42 type  3   force =     0.00000000    0.00000000    0.00000000
     atom   43 type  3   force =     0.00000000    0.00000000    0.00000000
     atom   44 type  3   force =     0.00000000    0.00000000    0.00000000
     The SCF correction term to forces
     atom    1 type  1   force =    -0.00000107   -0.00000000    0.00000081
     atom    2 type  1   force =     0.00000062   -0.00000000    0.00000068
     atom    3 type  1   force =    -0.00000070   -0.00000000    0.00000017
     atom    4 type  1   force =     0.00000059   -0.00000000    0.00000001
     atom    5 type  2   force =     0.00000138   -0.00000000   -0.00000062
     atom    6 type  2   force =    -0.00000063   -0.00000000   -0.00000088
     atom    7 type  1   force =     0.00000069   -0.00000054   -0.00000002
     atom    8 type  1   force =    -0.00000055   -0.00000077   -0.00000023
     atom    9 type  2   force =    -0.00000158    0.00000000    0.00000112
     atom   10 type  2   force =     0.00000077    0.00000000   -0.00000015
     atom   11 type  1   force =     0.00000069    0.00000054   -0.00000002
     atom   12 type  1   force =    -0.00000055    0.00000077   -0.00000023
     atom   13 type  1   force =    -0.00000049   -0.00000000   -0.00000020
     atom   14 type  1   force =     0.00000047   -0.00000000   -0.00000033
     atom   15 type  1   force =    -0.00000038    0.00000000    0.00000085
     atom   16 type  1   force =     0.00000049    0.00000000    0.00000029
     atom   17 type  2   force =    -0.00000053   -0.00000000   -0.00000001
     atom   18 type  2   force =     0.00000066   -0.00000000   -0.00000001
     atom   19 type  1   force =    -0.00000004    0.00000005   -0.00000000
     atom   20 type  1   force =    -0.00000029    0.00000032   -0.00000000
     atom   21 type  2   force =    -0.00000037    0.00000000   -0.00000001
     atom   22 type  2   force =    -0.00000012    0.00000000   -0.00000001
     atom   23 type  1   force =    -0.00000004   -0.00000005   -0.00000000
     atom   24 type  1   force =    -0.00000029   -0.00000032   -0.00000000
     atom   25 type  1   force =    -0.00000037    0.00000000   -0.00000085
     atom   26 type  1   force =     0.00000049    0.00000000   -0.00000029
     atom   27 type  1   force =    -0.00000049   -0.00000000    0.00000020
     atom   28 type  1   force =     0.00000047   -0.00000000    0.00000032
     atom   29 type  2   force =     0.00000138   -0.00000000    0.00000061
     atom   30 type  2   force =    -0.00000063   -0.00000000    0.00000087
     atom   31 type  1   force =     0.00000069   -0.00000054    0.00000002
     atom   32 type  1   force =    -0.00000055   -0.00000077    0.00000022
     atom   33 type  2   force =    -0.00000158    0.00000000   -0.00000112
     atom   34 type  2   force =     0.00000077    0.00000000    0.00000014
     atom   35 type  1   force =     0.00000069    0.00000054    0.00000002
     atom   36 type  1   force =    -0.00000055    0.00000077    0.00000022
     atom   37 type  1   force =    -0.00000070   -0.00000000   -0.00000017
     atom   38 type  1   force =     0.00000059   -0.00000000   -0.00000001
     atom   39 type  1   force =    -0.00000107    0.00000000   -0.00000081
     atom   40 type  1   force =     0.00000062    0.00000000   -0.00000068
     atom   41 type  3   force =     0.00000015   -0.00000000   -0.00000004
     atom   42 type  3   force =     0.00000015    0.00000000    0.00000005
     atom   43 type  3   force =     0.00000001    0.00000000    0.00000006
     atom   44 type  3   force =     0.00000001    0.00000000   -0.00000006

     Total force =     0.000254     Total SCF correction =     0.000006
     Energy error            =      2.2E-07 Ry
     Gradient error          =      9.6E-05 Ry/Bohr

     bfgs converged in  22 scf cycles and  21 bfgs steps
     (criteria: energy <  1.0E-04 Ry, force <  1.0E-04 Ry/Bohr)

     End of BFGS Geometry Optimization

     Final energy             =   -3432.8257751665 Ry

     File /storage/home/mgm6007/ixd4/Maria/Strain0_Files/RuO2-110-0-01/RuO2-110-0-01.bfgs deleted, as requested
Begin final coordinates

ATOMIC_POSITIONS (crystal)
O            -0.0101576074        0.5000000000        0.2705699953
O             0.4898444020        0.5000000000        0.2705684274
O            -0.0008232162        0.0000000000        0.3065236025
O             0.4991766051        0.0000000000        0.3065236536
Ru            0.2490569934        0.0000000000        0.3536965619
Ru            0.7490571070        0.0000000000        0.3536965312
O             0.2485105090        0.3112498635        0.3573351695
O             0.7485106497        0.3112498097        0.3573350344
Ru           -0.0012873709        0.5000000000        0.3572024832
Ru            0.4987128462        0.5000000000        0.3572010423
O             0.2485105090        0.6887501365        0.3573351695
O             0.7485106497        0.6887501903        0.3573350344
O            -0.0004280490        0.0000000000        0.4118805116
O             0.4995720020        0.0000000000        0.4118805632
O             0.0042411071        0.5000000000        0.4447647014
O             0.5042409486        0.5000000000        0.4447620150
Ru            0.0005152781        0.0000000000        0.5000010000
Ru            0.5005153687        0.0000000000        0.5000010000
O             0.2504906473        0.1901172450        0.5000010000
O             0.7504898903        0.1901170815        0.5000010000
Ru            0.2514209232        0.5000000000        0.5000010000
Ru            0.7514144751        0.5000000000        0.5000010000
O             0.2504906473        0.8098837550        0.5000010000
O             0.7504898903        0.8098839185        0.5000010000
O             0.0042411071        0.5000000000        0.5552362986
O             0.5042409486        0.5000000000        0.5552389850
O            -0.0004280490        0.0000000000        0.5881204884
O             0.4995720020        0.0000000000        0.5881204368
Ru            0.2490569934        0.0000000000        0.6463044381
Ru            0.7490571070        0.0000000000        0.6463044688
O             0.2485105090        0.3112498635        0.6426658305
O             0.7485106497        0.3112498097        0.6426659656
Ru           -0.0012873709        0.5000000000        0.6427985168
Ru            0.4987128462        0.5000000000        0.6427999577
O             0.2485105090        0.6887501365        0.6426658305
O             0.7485106497        0.6887501903        0.6426659656
O            -0.0008232162        0.0000000000        0.6934783975
O             0.4991766051        0.0000000000        0.6934783464
O            -0.0101576074        0.5000000000        0.7294310047
O             0.4898444020        0.5000000000        0.7294325726
H             0.1285553211        0.5000000000        0.2517131967
H             0.1285553211        0.5000000000        0.7482868033
H             0.6285530334        0.5000000000        0.2517123711
H             0.6285530334        0.5000000000        0.7482876289
End final coordinates

     Writing all to output data dir /storage/home/mgm6007/ixd4/Maria/Strain0_Files/RuO2-110-0-01/RuO2-110-0-01.save/

     General routines

     Parallel routines

     Environ routines

   This run was terminated on:  19:12:47  19Jul2023

   JOB DONE.