     Program PWSCF v.7.2 starts on 19Jul2023 at 11:40: 5
        Git branch: heads/qe-7.2
        Last git commit: b4c5e8deeb7d1863e7553a87b45f8d22c21926a5
        Last git commit date: Mon Mar 27 16:12:09 2023 +0000
        Last git commit subject: Merge branch 'merge_fix_hubbard' into 'develop'

     Reading input from RuO2-110-0-024.in

     Current dimensions of program PWSCF are:
     Max number of different atomic species (ntypx) = 10
     Max number of k-points (npk) =  40000
     Max angular momentum in pseudopotentials (lmaxx) =  4

     Reading input from environ.in:
     * Environ restarting
     * setting up water environment
     * using electronic solvent mode
     * setting boundary derivatives method to SCCS default

     file O.pbe-n-kjpaw_psl.0.1.UPF: wavefunction(s)  2P renormalized
     Message from routine setup:
     using ibrav=0 with symmetry is DISCOURAGED, use correct ibrav instead

     R & G space division:  proc/nbgrp/npool/nimage =      20
     Subspace diagonalization in iterative solution of the eigenvalue problem:
     one sub-group per band group will be used

     Using Slab Decomposition

     bravais-lattice index     =            0
     lattice parameter (alat)  =      12.1041  a.u.
     unit-cell volume          =    5954.5483 (a.u.)^3
     number of atoms/cell      =           46
     number of atomic types    =            3
     number of electrons       =       366.00
     number of Kohn-Sham states=          220
     kinetic-energy cutoff     =      50.0000  Ry
     charge density cutoff     =     500.0000  Ry
     scf convergence threshold =      1.0E-09
     mixing beta               =       0.7000
     number of iterations used =            8  local-TF  mixing
     energy convergence thresh.=      1.0E-04
     force convergence thresh. =      1.0E-04
     Exchange-correlation= PBE
                           (   1   4   3   4   0   0   0)
     nstep                     =          200

                                  Environ Setup Summary

          O. Andreussi, I. Dabo and N. Marzari, J. Chem. Phys. 136, 064102 (2012)

     in publications or presentations arising from this work.

     Parameters

     compensation onset threshold      =               0.1000E+00
     static permittivity               =                    78.30
     surface tension in input (dyn/cm) =                    47.90
     surface tension in internal units =               0.6153E-04
     external pressure in input (GPa)  =                    -0.36
     external pressure in inter. units =              -0.2447E-04

     Solvent Boundary

     solvent mode                      =               electronic
     derivatives method                =                    chain
     numerical core for derivatives    =                      fft
     switching function adopted        =                     SCCS
     density limit for vacuum region   =               0.5000E-02
     density limit for bulk solvent    =               0.1000E-03

     Electrostatic Setup

     electrostatic problem to solve    =              generalized
     numerical solver adopted          =                       cg
     type of auxiliary density adopted =                     none
     numerical core for poisson        =                      fft
     type of pbc corrections           =                parabolic
     numerical core for corrections    =                      1da

     celldm(1)=  12.104053  celldm(2)=   0.000000  celldm(3)=   0.000000
     celldm(4)=   0.000000  celldm(5)=   0.000000  celldm(6)=   0.000000

     crystal axes: (cart. coord. in units of alat)
               a(1) = (   1.000000   0.000000   0.000000 )
               a(2) = (   0.000000   0.971735   0.000000 )
               a(3) = (   0.000000   0.000000   3.455479 )

     reciprocal axes: (cart. coord. in units 2 pi/alat)
               b(1) = (  1.000000  0.000000  0.000000 )
               b(2) = (  0.000000  1.029087  0.000000 )
               b(3) = (  0.000000  0.000000  0.289395 )

     PseudoPot. # 1 for O  read from file:
     /gpfs/group/ixd4/default/Simon/pseudopotentials/materialscloud/SSSP_1.3.0_PBE_efficiency/O.pbe-n-kjpaw_psl.0.1.UPF
     MD5 check sum: 0234752ac141de4415c5fc33072bef88
     Pseudo is Projector augmented-wave + core cor, Zval =  6.0
     Generated using "atomic" code by A. Dal Corso  v.5.0.99 svn rev. 10869
     Shape of augmentation charge: BESSEL
     Using radial grid of 1095 points,  4 beta functions with:
                l(1) =   0
                l(2) =   0
                l(3) =   1
                l(4) =   1
     Q(r) pseudized with 0 coefficients

     PseudoPot. # 2 for Ru read from file:
     /gpfs/group/ixd4/default/Simon/pseudopotentials/materialscloud/SSSP_1.3.0_PBE_efficiency/Ru_ONCV_PBE-1.0.oncvpsp.upf
     MD5 check sum: be037bb81c227cfb9b1461a9f099f4bd
     Pseudo is Norm-conserving, Zval = 16.0
     Generated using ONCVPSP code by D. R. Hamann
     Using radial grid of 1458 points,  6 beta functions with:
                l(1) =   0
                l(2) =   0
                l(3) =   1
                l(4) =   1
                l(5) =   2
                l(6) =   2

     PseudoPot. # 3 for H  read from file:
     /gpfs/group/ixd4/default/Simon/pseudopotentials/materialscloud/SSSP_1.3.0_PBE_efficiency/H.pbe-rrkjus_psl.1.0.0.UPF
     MD5 check sum: f52b6d4d1c606e5624b1dc7b2218f220
     Pseudo is Ultrasoft, Zval =  1.0
     Generated using "atomic" code by A. Dal Corso  v.5.1
     Using radial grid of  929 points,  2 beta functions with:
                l(1) =   0
                l(2) =   0
     Q(r) pseudized with 0 coefficients

     atomic species   valence    mass     pseudopotential
        O              6.00    15.99940     O ( 1.00)
        Ru            16.00   101.07000     Ru( 1.00)
        H              1.00     1.00794     H ( 1.00)

      4 Sym. Ops. (no inversion) found

   Cartesian axes

     site n.     atom                  positions (alat units)
         1           O   tau(   1) = (   0.0137326   0.4858677   0.9337412  )
         2           O   tau(   2) = (   0.4776861   0.4858677   0.9395190  )
         3           O   tau(   3) = (  -0.0020597   0.0000000   0.9993745  )
         4           O   tau(   4) = (   0.4969173   0.0000000   1.0641323  )
         5           Ru  tau(   5) = (   0.2564272   0.0000000   1.2374010  )
         6           Ru  tau(   6) = (   0.7399595   0.0000000   1.2345966  )
         7           O   tau(   7) = (   0.2456872   0.2953587   1.2390212  )
         8           O   tau(   8) = (   0.7510967   0.2986915   1.2300560  )
         9           Ru  tau(   9) = (  -0.0003166   0.4858677   1.2407310  )
        10           Ru  tau(  10) = (   0.5000176   0.4858677   1.2096396  )
        11           O   tau(  11) = (   0.2456872   0.6763766   1.2390212  )
        12           O   tau(  12) = (   0.7510967   0.6730439   1.2300560  )
        13           O   tau(  13) = (  -0.0047818   0.0000000   1.4227424  )
        14           O   tau(  14) = (   0.4991664   0.0000000   1.4253247  )
        15           O   tau(  15) = (  -0.0005084   0.4858677   1.5425305  )
        16           O   tau(  16) = (   0.4978758   0.4858677   1.5224922  )
        17           Ru  tau(  17) = (  -0.0041413   0.0000000   1.7277432  )
        18           Ru  tau(  18) = (   0.5004176   0.0000000   1.7277432  )
        19           O   tau(  19) = (   0.2480217   0.1857363   1.7277432  )
        20           O   tau(  20) = (   0.7476853   0.1909830   1.7277432  )
        21           Ru  tau(  21) = (   0.2561116   0.4858677   1.7277432  )
        22           Ru  tau(  22) = (   0.7418425   0.4858677   1.7277432  )
        23           O   tau(  23) = (   0.2480217   0.7860001   1.7277432  )
        24           O   tau(  24) = (   0.7476853   0.7807533   1.7277432  )
        25           O   tau(  25) = (  -0.0005084   0.4858677   1.9129525  )
        26           O   tau(  26) = (   0.4978758   0.4858677   1.9329907  )
        27           O   tau(  27) = (  -0.0047818   0.0000000   2.0327406  )
        28           O   tau(  28) = (   0.4991664   0.0000000   2.0301582  )
        29           Ru  tau(  29) = (   0.2564272   0.0000000   2.2180819  )
        30           Ru  tau(  30) = (   0.7399595   0.0000000   2.2208863  )
        31           O   tau(  31) = (   0.2456872   0.2953587   2.2164617  )
        32           O   tau(  32) = (   0.7510967   0.2986915   2.2254269  )
        33           Ru  tau(  33) = (  -0.0003166   0.4858677   2.2147519  )
        34           Ru  tau(  34) = (   0.5000176   0.4858677   2.2458433  )
        35           O   tau(  35) = (   0.2456872   0.6763766   2.2164617  )
        36           O   tau(  36) = (   0.7510967   0.6730439   2.2254269  )
        37           O   tau(  37) = (  -0.0020597   0.0000000   2.4561119  )
        38           O   tau(  38) = (   0.4969173   0.0000000   2.3913541  )
        39           O   tau(  39) = (   0.0137326   0.4858677   2.5217417  )
        40           O   tau(  40) = (   0.4776861   0.4858677   2.5159639  )
        41           H   tau(  41) = (   0.1630990   0.4858677   0.8948538  )
        42           H   tau(  42) = (   0.1630990   0.4858677   2.5606257  )
        43           H   tau(  43) = (  -0.0029851   0.1166937   0.9069437  )
        44           H   tau(  44) = (  -0.0029851   0.1166937   2.5485358  )
        45           H   tau(  45) = (  -0.0029851   0.8550417   0.9069437  )
        46           H   tau(  46) = (  -0.0029851   0.8550417   2.5485358  )

     number of k points=     1  Marzari-Vanderbilt smearing, width (Ry)=  0.0300
                       cart. coord. in units 2pi/alat
        k(    1) = (   0.2500000   0.2572717   0.0000000), wk =   2.0000000

     Check: negative core charge=   -0.000001

     Initial potential from superposition of free atoms

     starting charge     365.9933, renormalised to     366.0000

     add environment contribution to local potential
     Polarization accuracy = 5.3E-12, # of iterations =  24

     negative rho (up, down):  3.187E-05 0.000E+00
     Starting wfcs are  238 randomized atomic wfcs
     Checking if some PAW data can be deallocated...

     Self-consistent Calculation

     iteration #  1     ecut=    50.00 Ry     beta= 0.70
     Davidson diagonalization with overlap
     ethr =  1.00E-02,  avg # of iterations =  2.0

     total energy              =   -3432.88913420 Ry
     estimated scf accuracy    <       9.57621695 Ry
     electrostatic embedding   =      -0.00174168 Ry
     cavitation energy         =       0.01988219 Ry
     PV energy                 =      -0.08584006 Ry
     correction to one-el term =     215.99394602 Ry

[...]

     negative rho (up, down):  1.123E-03 0.000E+00

[...]

     the potential shift due to the Gaussian-smeared nuclei is    -1.3136 ev

     End of self-consistent calculation

          k = 0.2500 0.2573 0.0000 ( 35510 PWs)   bands (ev):

   -77.6153 -77.6015 -77.1193 -77.1063 -77.0401 -77.0270 -76.9976 -76.9843
   -76.8941 -76.8762 -76.7893 -76.7780 -48.1384 -48.1247 -47.4690 -47.4552
[...]
     atom   18 type  2   force =    -0.06947364    0.00000000   -0.00580523
     atom   19 type  1   force =     0.21598110   -1.69777400   -0.00242683
     atom   20 type  1   force =    -0.21432261   -1.69650182   -0.00243213
     atom   21 type  2   force =    -0.74102550   -0.00000000   -0.00597167
     atom   22 type  2   force =     0.59774036   -0.00000000   -0.00598378
     atom   23 type  1   force =     0.21597963    1.69740494   -0.00242683
     atom   24 type  1   force =    -0.21432212    1.69613371   -0.00243213
     atom   25 type  1   force =     0.17266639    0.00000000  -24.43186056
     atom   26 type  1   force =    -0.13456003    0.00000000  -27.42792266
     atom   27 type  1   force =     0.05621408    0.00000000  -38.52592666
     atom   28 type  1   force =    -0.19717013    0.00000000  -35.88789431
     atom   29 type  2   force =     5.87474068   -0.00000000 -167.26668595
     atom   30 type  2   force =    -5.63588120    0.00000000 -167.94984276
     atom   31 type  1   force =     0.24336161    1.34846741  -61.03805116
     atom   32 type  1   force =    -0.40978593    1.34599105  -62.80940362
     atom   33 type  2   force =     1.20600719    0.00000000 -163.21879469
     atom   34 type  2   force =    -1.26229024   -0.00000000 -171.64875837
     atom   35 type  1   force =     0.24336161   -1.34846741  -61.03805116
     atom   36 type  1   force =    -0.40978593   -1.34599105  -62.80940362
     atom   37 type  1   force =     0.01067621    0.00000000  -88.99643889
     atom   38 type  1   force =    -0.12185459   -0.00000000  -92.27825866
     atom   39 type  1   force =     1.74729265   -0.00000000  -92.85035716
     atom   40 type  1   force =    -0.30680757    0.00000000  -97.52861207
     atom   41 type  3   force =    -2.64577312   -0.00000000   15.87063361
     atom   42 type  3   force =    -2.64577312   -0.00000000  -15.87063361
     atom   43 type  3   force =     0.07757559   -2.28310903   16.61888668
     atom   44 type  3   force =     0.07757559   -2.28310903  -16.61888668
     atom   45 type  3   force =     0.07757559    2.28310903   16.61888668
     atom   46 type  3   force =     0.07757559    2.28310903  -16.61888668
     The core correction contribution to forces
     atom    1 type  1   force =    -0.01710765    0.00000000   -0.00513013
     atom    2 type  1   force =     0.00009520    0.00000000   -0.01010928
     atom    3 type  1   force =     0.00043980   -0.00000000    0.01298554
     atom    4 type  1   force =    -0.00000701    0.00000000   -0.01133158
     atom    5 type  2   force =     0.00000000    0.00000000    0.00000000
     atom    6 type  2   force =     0.00000000    0.00000000    0.00000000
     atom    7 type  1   force =    -0.00054446   -0.00044046    0.00097103
     atom    8 type  1   force =     0.00089053   -0.00042005    0.00026296
     atom    9 type  2   force =     0.00000000    0.00000000    0.00000000
     atom   10 type  2   force =     0.00000000    0.00000000    0.00000000
     atom   11 type  1   force =    -0.00054446    0.00044046    0.00097103
     atom   12 type  1   force =     0.00089053    0.00042005    0.00026296
     atom   13 type  1   force =     0.00002404   -0.00000000   -0.00076601
     atom   14 type  1   force =     0.00017697   -0.00000000    0.00245898
     atom   15 type  1   force =     0.00016707    0.00000000    0.00028119
     atom   16 type  1   force =    -0.00003414    0.00000000   -0.00373071
     atom   17 type  2   force =     0.00000000    0.00000000    0.00000000
     atom   18 type  2   force =     0.00000000    0.00000000    0.00000000
     atom   19 type  1   force =    -0.00047293    0.00008693   -0.00000196
     atom   20 type  1   force =     0.00037037    0.00016567   -0.00000198
     atom   21 type  2   force =     0.00000000    0.00000000    0.00000000
     atom   22 type  2   force =     0.00000000    0.00000000    0.00000000
     atom   23 type  1   force =    -0.00047294   -0.00008755   -0.00000196
     atom   24 type  1   force =     0.00037037   -0.00016629   -0.00000198
     atom   25 type  1   force =     0.00016704    0.00000000   -0.00028343
     atom   26 type  1   force =    -0.00003411    0.00000000    0.00372862
     atom   27 type  1   force =     0.00002404   -0.00000000    0.00076381
     atom   28 type  1   force =     0.00017699    0.00000000   -0.00246138
     atom   29 type  2   force =     0.00000000    0.00000000    0.00000000
     atom   30 type  2   force =     0.00000000    0.00000000    0.00000000
     atom   31 type  1   force =    -0.00054434   -0.00044042   -0.00097263
     atom   32 type  1   force =     0.00089039   -0.00041995   -0.00026464
     atom   33 type  2   force =     0.00000000    0.00000000    0.00000000
     atom   34 type  2   force =     0.00000000    0.00000000    0.00000000
     atom   35 type  1   force =    -0.00054434    0.00044042   -0.00097263
     atom   36 type  1   force =     0.00089039    0.00041995   -0.00026464
     atom   37 type  1   force =     0.00043982   -0.00000000   -0.01298930
     atom   38 type  1   force =    -0.00000706    0.00000000    0.01132782
     atom   39 type  1   force =    -0.01710839    0.00000000    0.00512773
     atom   40 type  1   force =     0.00009509    0.00000000    0.01010733
     atom   41 type  3   force =     0.00000000    0.00000000    0.00000000
     atom   42 type  3   force =     0.00000000    0.00000000    0.00000000
     atom   43 type  3   force =     0.00000000    0.00000000    0.00000000
     atom   44 type  3   force =     0.00000000    0.00000000    0.00000000
     atom   45 type  3   force =     0.00000000    0.00000000    0.00000000
     atom   46 type  3   force =     0.00000000    0.00000000    0.00000000
     The Hubbard contrib.    to forces
     atom    1 type  1   force =     0.00000000    0.00000000    0.00000000
     atom    2 type  1   force =     0.00000000    0.00000000    0.00000000
     atom    3 type  1   force =     0.00000000    0.00000000    0.00000000
     atom    4 type  1   force =     0.00000000    0.00000000    0.00000000
     atom    5 type  2   force =     0.00000000    0.00000000    0.00000000
     atom    6 type  2   force =     0.00000000    0.00000000    0.00000000
     atom    7 type  1   force =     0.00000000    0.00000000    0.00000000
     atom    8 type  1   force =     0.00000000    0.00000000    0.00000000
     atom    9 type  2   force =     0.00000000    0.00000000    0.00000000
     atom   10 type  2   force =     0.00000000    0.00000000    0.00000000
     atom   11 type  1   force =     0.00000000    0.00000000    0.00000000
     atom   12 type  1   force =     0.00000000    0.00000000    0.00000000
     atom   13 type  1   force =     0.00000000    0.00000000    0.00000000
     atom   14 type  1   force =     0.00000000    0.00000000    0.00000000
     atom   15 type  1   force =     0.00000000    0.00000000    0.00000000
     atom   16 type  1   force =     0.00000000    0.00000000    0.00000000
     atom   17 type  2   force =     0.00000000    0.00000000    0.00000000
     atom   18 type  2   force =     0.00000000    0.00000000    0.00000000
     atom   19 type  1   force =     0.00000000    0.00000000    0.00000000
     atom   20 type  1   force =     0.00000000    0.00000000    0.00000000
     atom   21 type  2   force =     0.00000000    0.00000000    0.00000000
     atom   22 type  2   force =     0.00000000    0.00000000    0.00000000
     atom   23 type  1   force =     0.00000000    0.00000000    0.00000000
     atom   24 type  1   force =     0.00000000    0.00000000    0.00000000
     atom   25 type  1   force =     0.00000000    0.00000000    0.00000000
     atom   26 type  1   force =     0.00000000    0.00000000    0.00000000
     atom   27 type  1   force =     0.00000000    0.00000000    0.00000000
     atom   28 type  1   force =     0.00000000    0.00000000    0.00000000
     atom   29 type  2   force =     0.00000000    0.00000000    0.00000000
     atom   30 type  2   force =     0.00000000    0.00000000    0.00000000
     atom   31 type  1   force =     0.00000000    0.00000000    0.00000000
     atom   32 type  1   force =     0.00000000    0.00000000    0.00000000
     atom   33 type  2   force =     0.00000000    0.00000000    0.00000000
     atom   34 type  2   force =     0.00000000    0.00000000    0.00000000
     atom   35 type  1   force =     0.00000000    0.00000000    0.00000000
     atom   36 type  1   force =     0.00000000    0.00000000    0.00000000
     atom   37 type  1   force =     0.00000000    0.00000000    0.00000000
     atom   38 type  1   force =     0.00000000    0.00000000    0.00000000
     atom   39 type  1   force =     0.00000000    0.00000000    0.00000000
     atom   40 type  1   force =     0.00000000    0.00000000    0.00000000
     atom   41 type  3   force =     0.00000000    0.00000000    0.00000000
     atom   42 type  3   force =     0.00000000    0.00000000    0.00000000
     atom   43 type  3   force =     0.00000000    0.00000000    0.00000000
     atom   44 type  3   force =     0.00000000    0.00000000    0.00000000
     atom   45 type  3   force =     0.00000000    0.00000000    0.00000000
     atom   46 type  3   force =     0.00000000    0.00000000    0.00000000
     The SCF correction term to forces
     atom    1 type  1   force =    -0.00000063   -0.00000000   -0.00000132
     atom    2 type  1   force =     0.00000089   -0.00000000   -0.00000086
     atom    3 type  1   force =     0.00000042    0.00000000   -0.00000128
     atom    4 type  1   force =    -0.00000002    0.00000000   -0.00000104
     atom    5 type  2   force =     0.00000108    0.00000000   -0.00000162
     atom    6 type  2   force =    -0.00000108    0.00000000   -0.00000179
     atom    7 type  1   force =     0.00000087   -0.00000003   -0.00000018
     atom    8 type  1   force =    -0.00000091    0.00000001   -0.00000094
     atom    9 type  2   force =     0.00000006   -0.00000000   -0.00000101
     atom   10 type  2   force =     0.00000018   -0.00000000   -0.00000176
     atom   11 type  1   force =     0.00000087    0.00000003   -0.00000018
     atom   12 type  1   force =    -0.00000091   -0.00000001   -0.00000094
     atom   13 type  1   force =     0.00000022    0.00000000   -0.00000075
     atom   14 type  1   force =    -0.00000018    0.00000000    0.00000033
     atom   15 type  1   force =     0.00000168   -0.00000000    0.00000035
     atom   16 type  1   force =    -0.00000154   -0.00000000   -0.00000017
     atom   17 type  2   force =     0.00000135    0.00000000    0.00000001
     atom   18 type  2   force =    -0.00000123    0.00000000    0.00000000
     atom   19 type  1   force =     0.00000133    0.00000107    0.00000000
     atom   20 type  1   force =    -0.00000124   -0.00000065    0.00000000
     atom   21 type  2   force =     0.00000102   -0.00000000    0.00000000
     atom   22 type  2   force =    -0.00000133    0.00000000    0.00000000
     atom   23 type  1   force =     0.00000133   -0.00000107    0.00000000
     atom   24 type  1   force =    -0.00000124    0.00000065    0.00000000
     atom   25 type  1   force =     0.00000168   -0.00000000   -0.00000034
     atom   26 type  1   force =    -0.00000154   -0.00000000    0.00000018
     atom   27 type  1   force =     0.00000022    0.00000000    0.00000075
     atom   28 type  1   force =    -0.00000018    0.00000000   -0.00000033
     atom   29 type  2   force =     0.00000108    0.00000000    0.00000162
     atom   30 type  2   force =    -0.00000108    0.00000000    0.00000179
     atom   31 type  1   force =     0.00000087   -0.00000003    0.00000018
     atom   32 type  1   force =    -0.00000092    0.00000001    0.00000094
     atom   33 type  2   force =     0.00000006   -0.00000000    0.00000102
     atom   34 type  2   force =     0.00000017   -0.00000000    0.00000176
     atom   35 type  1   force =     0.00000087    0.00000003    0.00000018
     atom   36 type  1   force =    -0.00000092   -0.00000001    0.00000094
     atom   37 type  1   force =     0.00000042    0.00000000    0.00000128
     atom   38 type  1   force =    -0.00000002    0.00000000    0.00000104
     atom   39 type  1   force =    -0.00000063    0.00000000    0.00000132
     atom   40 type  1   force =     0.00000089   -0.00000000    0.00000086
     atom   41 type  3   force =     0.00000009   -0.00000000   -0.00000021
     atom   42 type  3   force =     0.00000009    0.00000000    0.00000021
     atom   43 type  3   force =     0.00000000   -0.00000005   -0.00000018
     atom   44 type  3   force =     0.00000000   -0.00000005    0.00000018
     atom   45 type  3   force =     0.00000000    0.00000005   -0.00000018
     atom   46 type  3   force =     0.00000000    0.00000005    0.00000018

     Total force =     0.000279     Total SCF correction =     0.000009
     Energy error            =      1.4E-07 Ry
     Gradient error          =      6.9E-05 Ry/Bohr

     bfgs converged in  26 scf cycles and  25 bfgs steps
     (criteria: energy <  1.0E-04 Ry, force <  1.0E-04 Ry/Bohr)

     End of BFGS Geometry Optimization

     Final energy             =   -3435.2583504852 Ry

     File /storage/home/mgm6007/ixd4/Maria/Strain0_Files/RuO2-110-0-024/RuO2-110-0-024.bfgs deleted, as requested
Begin final coordinates

ATOMIC_POSITIONS (crystal)
O             0.0114079168        0.5000000000        0.2688410513
O             0.4807555155        0.5000000000        0.2706833009
O            -0.0024549208        0.0000000000        0.2889230612
O             0.4975214842        0.0000000000        0.3067793825
Ru            0.2583345524        0.0000000000        0.3577011464
Ru            0.7388308349        0.0000000000        0.3570684751
O             0.2462422084        0.3071187934        0.3582164256
O             0.7514377903        0.3089996398        0.3558969597
Ru           -0.0002577211        0.5000000000        0.3586595056
Ru            0.4996957964        0.5000000000        0.3490495473
O             0.2462422084        0.6928812066        0.3582164256
O             0.7514377903        0.6910003602        0.3558969597
O            -0.0033815929        0.0000000000        0.4112557516
O             0.4990544949        0.0000000000        0.4120519957
O            -0.0008275251        0.5000000000        0.4464496895
O             0.4992725146        0.5000000000        0.4409372563
Ru           -0.0021130808        0.0000000000        0.5000010000
Ru            0.4984016512        0.0000000000        0.5000010000
O             0.2476821840        0.1897117724        0.5000010000
O             0.7482268284        0.1902110320        0.5000010000
Ru            0.2558426268        0.5000000000        0.5000010000
Ru            0.7425794601        0.5000000000        0.5000010000
O             0.2476821840        0.8102892276        0.5000010000
O             0.7482268284        0.8097899680        0.5000010000
O            -0.0008275251        0.5000000000        0.5535513105
O             0.4992725146        0.5000000000        0.5590637437
O            -0.0033815929        0.0000000000        0.5887452484
O             0.4990544949        0.0000000000        0.5879490043
Ru            0.2583345524        0.0000000000        0.6422998536
Ru            0.7388308349        0.0000000000        0.6429325249
O             0.2462422084        0.3071187934        0.6417845744
O             0.7514377903        0.3089996398        0.6441040403
Ru           -0.0002577211        0.5000000000        0.6413414944
Ru            0.4996957964        0.5000000000        0.6509514527
O             0.2462422084        0.6928812066        0.6417845744
O             0.7514377903        0.6910003602        0.6441040403
O            -0.0024549208        0.0000000000        0.7110789388
O             0.4975214842        0.0000000000        0.6932226175
O             0.0114079168        0.5000000000        0.7311599487
O             0.4807555155        0.5000000000        0.7293176991
H             0.1593952202        0.5000000000        0.2570474566
H             0.1593952202        0.5000000000        0.7429525434
H            -0.0041679541        0.1279649723        0.2624136571
H            -0.0041679541        0.1279649723        0.7375863429
H            -0.0041679541        0.8720350277        0.2624136571
H            -0.0041679541        0.8720350277        0.7375863429
End final coordinates

     Writing all to output data dir /storage/home/mgm6007/ixd4/Maria/Strain0_Files/RuO2-110-0-024/RuO2-110-0-024.save/

     General routines

     Parallel routines

     Environ routines

   This run was terminated on:  16:56: 4  20Jul2023

   JOB DONE.