     Program PWSCF v.7.2 starts on 14Jul2023 at 10:29:35
        Git branch: heads/qe-7.2
        Last git commit: b4c5e8deeb7d1863e7553a87b45f8d22c21926a5
        Last git commit date: Mon Mar 27 16:12:09 2023 +0000
        Last git commit subject: Merge branch 'merge_fix_hubbard' into 'develop'

     Reading input from RuO2-110-0-035.in

     Current dimensions of program PWSCF are:
     Max number of different atomic species (ntypx) = 10
     Max number of k-points (npk) =  40000
     Max angular momentum in pseudopotentials (lmaxx) =  4

     Reading input from environ.in:
     * Environ restarting
     * setting up water environment
     * using electronic solvent mode
     * setting boundary derivatives method to SCCS default

     file O.pbe-n-kjpaw_psl.0.1.UPF: wavefunction(s)  2P renormalized
     Message from routine setup:
     using ibrav=0 with symmetry is DISCOURAGED, use correct ibrav instead

     R & G space division:  proc/nbgrp/npool/nimage =      20
     Subspace diagonalization in iterative solution of the eigenvalue problem:
     one sub-group per band group will be used

     Using Slab Decomposition

     bravais-lattice index     =            0
     lattice parameter (alat)  =      12.3893  a.u.
     unit-cell volume          =    5808.5831 (a.u.)^3
     number of atoms/cell      =           46
     number of atomic types    =            3
     number of electrons       =       366.00
     number of Kohn-Sham states=          220
     kinetic-energy cutoff     =      50.0000  Ry
     charge density cutoff     =     500.0000  Ry
     scf convergence threshold =      1.0E-10
     mixing beta               =       0.7000
     number of iterations used =            8  local-TF  mixing
     energy convergence thresh.=      1.0E-04
     force convergence thresh. =      1.0E-04
     Exchange-correlation= PBE
                           (   1   4   3   4   0   0   0)
     nstep                     =          200

                                  Environ Setup Summary

          O. Andreussi, I. Dabo and N. Marzari, J. Chem. Phys. 136, 064102 (2012)

     in publications or presentations arising from this work.

     Parameters

     compensation onset threshold      =               0.1000E+00
     static permittivity               =                    78.30
     surface tension in input (dyn/cm) =                    47.90
     surface tension in internal units =               0.6153E-04
     external pressure in input (GPa)  =                    -0.36
     external pressure in inter. units =              -0.2447E-04

     Solvent Boundary

     solvent mode                      =               electronic
     derivatives method                =                    chain
     numerical core for derivatives    =                      fft
     switching function adopted        =                     SCCS
     density limit for vacuum region   =               0.5000E-02
     density limit for bulk solvent    =               0.1000E-03

     Electrostatic Setup

     electrostatic problem to solve    =              generalized
     numerical solver adopted          =                       cg
     type of auxiliary density adopted =                     none
     numerical core for poisson        =                      fft
     type of pbc corrections           =                parabolic
     numerical core for corrections    =                      1da

     celldm(1)=  12.389316  celldm(2)=   0.000000  celldm(3)=   0.000000
     celldm(4)=   0.000000  celldm(5)=   0.000000  celldm(6)=   0.000000

     crystal axes: (cart. coord. in units of alat)
               a(1) = (   1.000000   0.000000   0.000000 )
               a(2) = (   0.000000   0.904766   0.000000 )
               a(3) = (   0.000000   0.000000   3.375918 )

     reciprocal axes: (cart. coord. in units 2 pi/alat)
               b(1) = (  1.000000  0.000000  0.000000 )
               b(2) = (  0.000000  1.105258  0.000000 )
               b(3) = (  0.000000  0.000000  0.296216 )

     PseudoPot. # 1 for O  read from file:
     /gpfs/group/ixd4/default/Simon/pseudopotentials/materialscloud/SSSP_1.3.0_PBE_efficiency/O.pbe-n-kjpaw_psl.0.1.UPF
     MD5 check sum: 0234752ac141de4415c5fc33072bef88
     Pseudo is Projector augmented-wave + core cor, Zval =  6.0
     Generated using "atomic" code by A. Dal Corso  v.5.0.99 svn rev. 10869
     Shape of augmentation charge: BESSEL
     Using radial grid of 1095 points,  4 beta functions with:
                l(1) =   0
                l(2) =   0
                l(3) =   1
                l(4) =   1
     Q(r) pseudized with 0 coefficients

     PseudoPot. # 2 for Ru read from file:
     /gpfs/group/ixd4/default/Simon/pseudopotentials/materialscloud/SSSP_1.3.0_PBE_efficiency/Ru_ONCV_PBE-1.0.oncvpsp.upf
     MD5 check sum: be037bb81c227cfb9b1461a9f099f4bd
     Pseudo is Norm-conserving, Zval = 16.0
     Generated using ONCVPSP code by D. R. Hamann
     Using radial grid of 1458 points,  6 beta functions with:
                l(1) =   0
                l(2) =   0
                l(3) =   1
                l(4) =   1
                l(5) =   2
                l(6) =   2

     PseudoPot. # 3 for H  read from file:
     /gpfs/group/ixd4/default/Simon/pseudopotentials/materialscloud/SSSP_1.3.0_PBE_efficiency/H.pbe-rrkjus_psl.1.0.0.UPF
     MD5 check sum: f52b6d4d1c606e5624b1dc7b2218f220
     Pseudo is Ultrasoft, Zval =  1.0
     Generated using "atomic" code by A. Dal Corso  v.5.1
     Using radial grid of  929 points,  2 beta functions with:
                l(1) =   0
                l(2) =   0
     Q(r) pseudized with 0 coefficients

     atomic species   valence    mass     pseudopotential
        O              6.00    15.99940     O ( 1.00)
        Ru            16.00   101.07000     Ru( 1.00)
        H              1.00     1.00794     H ( 1.00)

      4 Sym. Ops. (no inversion) found

   Cartesian axes

     site n.     atom                  positions (alat units)
         1           O   tau(   1) = (   0.0000000   0.4523832   0.8804697  )
         2           O   tau(   2) = (   0.5000000   0.4523832   0.8804697  )
         3           O   tau(   3) = (   0.0000000   0.0000000   0.9930802  )
         4           O   tau(   4) = (   0.5000000   0.0000000   0.9930802  )
         5           Ru  tau(   5) = (   0.2500000   0.0000000   1.1871684  )
         6           Ru  tau(   6) = (   0.7500000   0.0000000   1.1871684  )
         7           O   tau(   7) = (   0.2500000   0.2770530   1.1871684  )
         8           O   tau(   8) = (   0.7500000   0.2770530   1.1871684  )
         9           Ru  tau(   9) = (   0.0000000   0.4523832   1.1871684  )
        10           Ru  tau(  10) = (   0.5000000   0.4523832   1.1871684  )
        11           O   tau(  11) = (   0.2500000   0.6277133   1.1871684  )
        12           O   tau(  12) = (   0.7500000   0.6277133   1.1871684  )
        13           O   tau(  13) = (   0.0000000   0.0000000   1.3812600  )
        14           O   tau(  14) = (   0.5000000   0.0000000   1.3812600  )
        15           O   tau(  15) = (   0.0000000   0.4523832   1.4938705  )
        16           O   tau(  16) = (   0.5000000   0.4523832   1.4938705  )
        17           Ru  tau(  17) = (   0.0000000   0.0000000   1.6879622  )
        18           Ru  tau(  18) = (   0.5000000   0.0000000   1.6879622  )
        19           O   tau(  19) = (   0.2500000   0.1753301   1.6879622  )
        20           O   tau(  20) = (   0.7500000   0.1753301   1.6879622  )
        21           Ru  tau(  21) = (   0.2500000   0.4523832   1.6879622  )
        22           Ru  tau(  22) = (   0.7500000   0.4523832   1.6879622  )
        23           O   tau(  23) = (   0.2500000   0.7294371   1.6879622  )
        24           O   tau(  24) = (   0.7500000   0.7294371   1.6879622  )
        25           O   tau(  25) = (   0.0000000   0.4523832   1.8820504  )
        26           O   tau(  26) = (   0.5000000   0.4523832   1.8820504  )
        27           O   tau(  27) = (   0.0000000   0.0000000   1.9946609  )
        28           O   tau(  28) = (   0.5000000   0.0000000   1.9946609  )
        29           Ru  tau(  29) = (   0.2500000   0.0000000   2.1887525  )
        30           Ru  tau(  30) = (   0.7500000   0.0000000   2.1887525  )
        31           O   tau(  31) = (   0.2500000   0.2770530   2.1887525  )
        32           O   tau(  32) = (   0.7500000   0.2770530   2.1887525  )
        33           Ru  tau(  33) = (   0.0000000   0.4523832   2.1887525  )
        34           Ru  tau(  34) = (   0.5000000   0.4523832   2.1887525  )
        35           O   tau(  35) = (   0.2500000   0.6277133   2.1887525  )
        36           O   tau(  36) = (   0.7500000   0.6277133   2.1887525  )
        37           O   tau(  37) = (   0.0000000   0.0000000   2.3828441  )
        38           O   tau(  38) = (   0.5000000   0.0000000   2.3828441  )
        39           O   tau(  39) = (   0.0000000   0.4523832   2.4954513  )
        40           O   tau(  40) = (   0.5000000   0.4523832   2.4954513  )
        41           H   tau(  41) = (   0.1176350   0.4523832   0.7660733  )
        42           H   tau(  42) = (   0.1176350   0.4523832   2.6098442  )
        43           H   tau(  43) = (   0.5000000   0.1033388   0.8786804  )
        44           H   tau(  44) = (   0.5000000   0.1033388   2.4972371  )
        45           H   tau(  45) = (   0.5000000   0.8014275   0.8786804  )
        46           H   tau(  46) = (   0.5000000   0.8014275   2.4972371  )

     number of k points=     1  Marzari-Vanderbilt smearing, width (Ry)=  0.0300
                       cart. coord. in units 2pi/alat
        k(    1) = (   0.2500000   0.2763144   0.0000000), wk =   2.0000000

     Check: negative core charge=   -0.000001

     Initial potential from superposition of free atoms

     starting charge     365.9933, renormalised to     366.0000

     add environment contribution to local potential
     Polarization accuracy = 7.6E-12, # of iterations =  24

     negative rho (up, down):  2.243E-05 0.000E+00
     Starting wfcs are  238 randomized atomic wfcs
     Checking if some PAW data can be deallocated...

     Self-consistent Calculation

     iteration #  1     ecut=    50.00 Ry     beta= 0.70
     Davidson diagonalization with overlap
     ethr =  1.00E-02,  avg # of iterations =  2.0

     total energy              =   -3431.95767867 Ry
     estimated scf accuracy    <      10.32813561 Ry
     electrostatic embedding   =      -0.00183864 Ry
     cavitation energy         =       0.02014869 Ry
     PV energy                 =      -0.08721528 Ry
     correction to one-el term =     221.65457771 Ry

[...]

     negative rho (up, down):  9.271E-08 0.000E+00

[...]

     the potential shift due to the Gaussian-smeared nuclei is    -1.3466 ev

     End of self-consistent calculation

          k = 0.2500 0.2763 0.0000 ( 34692 PWs)   bands (ev):

   -77.1183 -77.1052 -76.9878 -76.9804 -76.9750 -76.9676 -76.9225 -76.9094
   -76.8915 -76.8669 -76.7610 -76.7434 -47.4583 -47.4485 -47.4454 -47.4357
[...]
     atom   18 type  2   force =    -0.20906795   -0.00000000   -0.00592295
     atom   19 type  1   force =    -0.38006970   -0.55989515   -0.00246917
     atom   20 type  1   force =     0.39453786   -0.65521024   -0.00247565
     atom   21 type  2   force =    -1.06203514   -0.00000000   -0.00605022
     atom   22 type  2   force =     1.65075545   -0.00000000   -0.00606979
     atom   23 type  1   force =    -0.38006613    0.55954867   -0.00246917
     atom   24 type  1   force =     0.39453912    0.65486422   -0.00247565
     atom   25 type  1   force =     0.27727286   -0.00000000  -25.64179856
     atom   26 type  1   force =    -0.24045888   -0.00000000  -26.53949309
     atom   27 type  1   force =     0.24385780    0.00000000  -37.20398939
     atom   28 type  1   force =    -0.02078945    0.00000000  -40.63331596
     atom   29 type  2   force =    -7.13739370   -0.00000000 -172.28290563
     atom   30 type  2   force =     6.92312528    0.00000000 -173.33453955
     atom   31 type  1   force =    -1.36881427    0.61612518  -62.70267491
     atom   32 type  1   force =     0.96298179    0.59891166  -65.31749486
     atom   33 type  2   force =     1.49841004   -0.00000000 -171.71467091
     atom   34 type  2   force =    -1.23571246   -0.00000000 -172.30194604
     atom   35 type  1   force =    -1.36881427   -0.61612518  -62.70267491
     atom   36 type  1   force =     0.96298179   -0.59891166  -65.31749486
     atom   37 type  1   force =     0.26887524   -0.00000000  -94.77344658
     atom   38 type  1   force =    -0.22644120   -0.00000000  -90.99041495
     atom   39 type  1   force =     1.72017303   -0.00000000  -96.52163803
     atom   40 type  1   force =    -0.23233225   -0.00000000  -98.91477572
     atom   41 type  3   force =    -2.65524270   -0.00000000   16.35569665
     atom   42 type  3   force =    -2.65524270   -0.00000000  -16.35569665
     atom   43 type  3   force =    -0.05627510   -2.15148836   17.09298840
     atom   44 type  3   force =    -0.05627510   -2.15148836  -17.09298840
     atom   45 type  3   force =    -0.05627510    2.15148836   17.09298840
     atom   46 type  3   force =    -0.05627510    2.15148836  -17.09298840
     The core correction contribution to forces
     atom    1 type  1   force =    -0.01734613   -0.00000000   -0.00542123
     atom    2 type  1   force =    -0.00019466    0.00000000   -0.01006951
     atom    3 type  1   force =    -0.00007986    0.00000000   -0.01229577
     atom    4 type  1   force =     0.00010709   -0.00000000    0.01390532
     atom    5 type  2   force =     0.00000000    0.00000000    0.00000000
     atom    6 type  2   force =     0.00000000    0.00000000    0.00000000
     atom    7 type  1   force =     0.00014597    0.00037885    0.00082482
     atom    8 type  1   force =     0.00065818    0.00035758   -0.00011639
     atom    9 type  2   force =     0.00000000    0.00000000    0.00000000
     atom   10 type  2   force =     0.00000000    0.00000000    0.00000000
     atom   11 type  1   force =     0.00014597   -0.00037885    0.00082482
     atom   12 type  1   force =     0.00065818   -0.00035758   -0.00011639
     atom   13 type  1   force =    -0.00013699   -0.00000000    0.00245513
     atom   14 type  1   force =    -0.00017475    0.00000000   -0.00155535
     atom   15 type  1   force =    -0.00003485   -0.00000000   -0.00024862
     atom   16 type  1   force =    -0.00032233   -0.00000000   -0.00175384
     atom   17 type  2   force =     0.00000000    0.00000000    0.00000000
     atom   18 type  2   force =     0.00000000    0.00000000    0.00000000
     atom   19 type  1   force =     0.00032209   -0.00044134   -0.00000206
     atom   20 type  1   force =     0.00005494   -0.00036576   -0.00000207
     atom   21 type  2   force =     0.00000000    0.00000000    0.00000000
     atom   22 type  2   force =     0.00000000    0.00000000    0.00000000
     atom   23 type  1   force =     0.00032210    0.00044084   -0.00000206
     atom   24 type  1   force =     0.00005494    0.00036525   -0.00000207
     atom   25 type  1   force =    -0.00003487    0.00000000    0.00024645
     atom   26 type  1   force =    -0.00032226   -0.00000000    0.00175177
     atom   27 type  1   force =    -0.00013700    0.00000000   -0.00245750
     atom   28 type  1   force =    -0.00017476    0.00000000    0.00155304
     atom   29 type  2   force =     0.00000000    0.00000000    0.00000000
     atom   30 type  2   force =     0.00000000    0.00000000    0.00000000
     atom   31 type  1   force =     0.00014592    0.00037887   -0.00082667
     atom   32 type  1   force =     0.00065822    0.00035771    0.00011447
     atom   33 type  2   force =     0.00000000    0.00000000    0.00000000
     atom   34 type  2   force =     0.00000000    0.00000000    0.00000000
     atom   35 type  1   force =     0.00014592   -0.00037887   -0.00082667
     atom   36 type  1   force =     0.00065822   -0.00035771    0.00011447
     atom   37 type  1   force =    -0.00007976    0.00000000    0.01229198
     atom   38 type  1   force =     0.00010711   -0.00000000   -0.01390903
     atom   39 type  1   force =    -0.01734690    0.00000000    0.00541901
     atom   40 type  1   force =    -0.00019486    0.00000000    0.01006732
     atom   41 type  3   force =     0.00000000    0.00000000    0.00000000
     atom   42 type  3   force =     0.00000000    0.00000000    0.00000000
     atom   43 type  3   force =     0.00000000    0.00000000    0.00000000
     atom   44 type  3   force =     0.00000000    0.00000000    0.00000000
     atom   45 type  3   force =     0.00000000    0.00000000    0.00000000
     atom   46 type  3   force =     0.00000000    0.00000000    0.00000000
     The Hubbard contrib.    to forces
     atom    1 type  1   force =     0.00000000    0.00000000    0.00000000
     atom    2 type  1   force =     0.00000000    0.00000000    0.00000000
     atom    3 type  1   force =     0.00000000    0.00000000    0.00000000
     atom    4 type  1   force =     0.00000000    0.00000000    0.00000000
     atom    5 type  2   force =     0.00000000    0.00000000    0.00000000
     atom    6 type  2   force =     0.00000000    0.00000000    0.00000000
     atom    7 type  1   force =     0.00000000    0.00000000    0.00000000
     atom    8 type  1   force =     0.00000000    0.00000000    0.00000000
     atom    9 type  2   force =     0.00000000    0.00000000    0.00000000
     atom   10 type  2   force =     0.00000000    0.00000000    0.00000000
     atom   11 type  1   force =     0.00000000    0.00000000    0.00000000
     atom   12 type  1   force =     0.00000000    0.00000000    0.00000000
     atom   13 type  1   force =     0.00000000    0.00000000    0.00000000
     atom   14 type  1   force =     0.00000000    0.00000000    0.00000000
     atom   15 type  1   force =     0.00000000    0.00000000    0.00000000
     atom   16 type  1   force =     0.00000000    0.00000000    0.00000000
     atom   17 type  2   force =     0.00000000    0.00000000    0.00000000
     atom   18 type  2   force =     0.00000000    0.00000000    0.00000000
     atom   19 type  1   force =     0.00000000    0.00000000    0.00000000
     atom   20 type  1   force =     0.00000000    0.00000000    0.00000000
     atom   21 type  2   force =     0.00000000    0.00000000    0.00000000
     atom   22 type  2   force =     0.00000000    0.00000000    0.00000000
     atom   23 type  1   force =     0.00000000    0.00000000    0.00000000
     atom   24 type  1   force =     0.00000000    0.00000000    0.00000000
     atom   25 type  1   force =     0.00000000    0.00000000    0.00000000
     atom   26 type  1   force =     0.00000000    0.00000000    0.00000000
     atom   27 type  1   force =     0.00000000    0.00000000    0.00000000
     atom   28 type  1   force =     0.00000000    0.00000000    0.00000000
     atom   29 type  2   force =     0.00000000    0.00000000    0.00000000
     atom   30 type  2   force =     0.00000000    0.00000000    0.00000000
     atom   31 type  1   force =     0.00000000    0.00000000    0.00000000
     atom   32 type  1   force =     0.00000000    0.00000000    0.00000000
     atom   33 type  2   force =     0.00000000    0.00000000    0.00000000
     atom   34 type  2   force =     0.00000000    0.00000000    0.00000000
     atom   35 type  1   force =     0.00000000    0.00000000    0.00000000
     atom   36 type  1   force =     0.00000000    0.00000000    0.00000000
     atom   37 type  1   force =     0.00000000    0.00000000    0.00000000
     atom   38 type  1   force =     0.00000000    0.00000000    0.00000000
     atom   39 type  1   force =     0.00000000    0.00000000    0.00000000
     atom   40 type  1   force =     0.00000000    0.00000000    0.00000000
     atom   41 type  3   force =     0.00000000    0.00000000    0.00000000
     atom   42 type  3   force =     0.00000000    0.00000000    0.00000000
     atom   43 type  3   force =     0.00000000    0.00000000    0.00000000
     atom   44 type  3   force =     0.00000000    0.00000000    0.00000000
     atom   45 type  3   force =     0.00000000    0.00000000    0.00000000
     atom   46 type  3   force =     0.00000000    0.00000000    0.00000000
     The SCF correction term to forces
     atom    1 type  1   force =    -0.00000037   -0.00000000   -0.00000070
     atom    2 type  1   force =     0.00000056   -0.00000000   -0.00000077
     atom    3 type  1   force =    -0.00000060    0.00000000   -0.00000062
     atom    4 type  1   force =     0.00000089    0.00000000   -0.00000063
     atom    5 type  2   force =    -0.00000034    0.00000000   -0.00000030
     atom    6 type  2   force =     0.00000012    0.00000000   -0.00000131
     atom    7 type  1   force =     0.00000002    0.00000011   -0.00000015
     atom    8 type  1   force =    -0.00000007   -0.00000008   -0.00000054
     atom    9 type  2   force =    -0.00000090   -0.00000000   -0.00000110
     atom   10 type  2   force =     0.00000091   -0.00000000   -0.00000127
     atom   11 type  1   force =     0.00000002   -0.00000011   -0.00000015
     atom   12 type  1   force =    -0.00000007    0.00000008   -0.00000054
     atom   13 type  1   force =    -0.00000030    0.00000000    0.00000001
     atom   14 type  1   force =     0.00000019    0.00000000    0.00000015
     atom   15 type  1   force =    -0.00000039   -0.00000000    0.00000003
     atom   16 type  1   force =     0.00000028   -0.00000000    0.00000002
     atom   17 type  2   force =    -0.00000042    0.00000000   -0.00000000
     atom   18 type  2   force =     0.00000040    0.00000000   -0.00000000
     atom   19 type  1   force =     0.00000015   -0.00000026   -0.00000000
     atom   20 type  1   force =    -0.00000012   -0.00000002   -0.00000000
     atom   21 type  2   force =     0.00000015   -0.00000000   -0.00000000
     atom   22 type  2   force =    -0.00000015   -0.00000000   -0.00000000
     atom   23 type  1   force =     0.00000015    0.00000026   -0.00000000
     atom   24 type  1   force =    -0.00000012    0.00000002   -0.00000000
     atom   25 type  1   force =    -0.00000039    0.00000000   -0.00000003
     atom   26 type  1   force =     0.00000028   -0.00000000   -0.00000002
     atom   27 type  1   force =    -0.00000030    0.00000000   -0.00000001
     atom   28 type  1   force =     0.00000019    0.00000000   -0.00000015
     atom   29 type  2   force =    -0.00000035    0.00000000    0.00000031
     atom   30 type  2   force =     0.00000012    0.00000000    0.00000132
     atom   31 type  1   force =     0.00000002    0.00000011    0.00000016
     atom   32 type  1   force =    -0.00000007   -0.00000008    0.00000054
     atom   33 type  2   force =    -0.00000090   -0.00000000    0.00000110
     atom   34 type  2   force =     0.00000092   -0.00000000    0.00000128
     atom   35 type  1   force =     0.00000002   -0.00000011    0.00000016
     atom   36 type  1   force =    -0.00000007    0.00000008    0.00000054
     atom   37 type  1   force =    -0.00000060   -0.00000000    0.00000062
     atom   38 type  1   force =     0.00000089    0.00000000    0.00000063
     atom   39 type  1   force =    -0.00000037   -0.00000000    0.00000070
     atom   40 type  1   force =     0.00000056   -0.00000000    0.00000077
     atom   41 type  3   force =    -0.00000002   -0.00000000   -0.00000011
     atom   42 type  3   force =    -0.00000002   -0.00000000    0.00000011
     atom   43 type  3   force =     0.00000008    0.00000003   -0.00000010
     atom   44 type  3   force =     0.00000009    0.00000003    0.00000010
     atom   45 type  3   force =     0.00000008   -0.00000003   -0.00000010
     atom   46 type  3   force =     0.00000009   -0.00000003    0.00000010

     Total force =     0.000254     Total SCF correction =     0.000005
     Energy error            =      1.7E-07 Ry
     Gradient error          =      6.7E-05 Ry/Bohr

     bfgs converged in  50 scf cycles and  49 bfgs steps
     (criteria: energy <  1.0E-04 Ry, force <  1.0E-04 Ry/Bohr)

     End of BFGS Geometry Optimization

     Final energy             =   -3435.0232467300 Ry

     File /storage/home/mgm6007/ixd4/Maria/Strain1_Files/RuO2-110-0-035/RuO2-110-0-035.bfgs deleted, as requested
Begin final coordinates

ATOMIC_POSITIONS (crystal)
O             0.0135884821        0.5000000000        0.2691446893
O             0.4768831370        0.5000000000        0.2733838122
O             0.0001788247        0.0000000000        0.3069476471
O             0.4973395747        0.0000000000        0.2904372664
Ru            0.2346966345        0.0000000000        0.3583682684
Ru            0.7619162861        0.0000000000        0.3576439805
O             0.2480487940        0.3117299163        0.3594195107
O             0.7503129454        0.3133969586        0.3560372025
Ru            0.0008252027        0.5000000000        0.3568442225
Ru            0.5014065326        0.5000000000        0.3538595384
O             0.2480487940        0.6882700837        0.3594195107
O             0.7503129454        0.6866030414        0.3560372025
O            -0.0024477179        0.0000000000        0.4119509656
O             0.5013563434        0.0000000000        0.4106619412
O            -0.0051677203        0.5000000000        0.4456085153
O             0.4944526475        0.5000000000        0.4442681317
Ru           -0.0012122802        0.0000000000        0.5000010000
Ru            0.4993935276        0.0000000000        0.5000010000
O             0.2510900277        0.1860932270        0.5000010000
O             0.7488293701        0.1863089812        0.5000010000
Ru            0.2453517488        0.5000000000        0.5000010000
Ru            0.7448110113        0.5000000000        0.5000010000
O             0.2510900277        0.8139077730        0.5000010000
O             0.7488293701        0.8136920188        0.5000010000
O            -0.0051677203        0.5000000000        0.5543924847
O             0.4944526475        0.5000000000        0.5557328683
O            -0.0024477179        0.0000000000        0.5880500344
O             0.5013563434        0.0000000000        0.5893390588
Ru            0.2346966345        0.0000000000        0.6416327316
Ru            0.7619162861        0.0000000000        0.6423570195
O             0.2480487940        0.3117299163        0.6405814893
O             0.7503129454        0.3133969586        0.6439637975
Ru            0.0008252027        0.5000000000        0.6431567775
Ru            0.5014065326        0.5000000000        0.6461414616
O             0.2480487940        0.6882700837        0.6405814893
O             0.7503129454        0.6866030414        0.6439637975
O             0.0001788247        0.0000000000        0.6930543529
O             0.4973395747        0.0000000000        0.7095647336
O             0.0135884821        0.5000000000        0.7308563107
O             0.4768831370        0.5000000000        0.7266171878
H             0.1582781088        0.5000000000        0.2571348868
H             0.1582781088        0.5000000000        0.7428651132
H             0.4967568918        0.1335494699        0.2636388353
H             0.4967568918        0.1335494699        0.7363611647
H             0.4967568918        0.8664505301        0.2636388353
H             0.4967568918        0.8664505301        0.7363611647
End final coordinates

     Writing all to output data dir /storage/home/mgm6007/ixd4/Maria/Strain1_Files/RuO2-110-0-035/RuO2-110-0-035.save/

     General routines

     Parallel routines

     Environ routines

   This run was terminated on:  18:21:52  16Jul2023

   JOB DONE.