     Program PWSCF v.7.2 starts on 26Jul2023 at 11:23: 2
        Git branch: heads/qe-7.2
        Last git commit: b4c5e8deeb7d1863e7553a87b45f8d22c21926a5
        Last git commit date: Mon Mar 27 16:12:09 2023 +0000
        Last git commit subject: Merge branch 'merge_fix_hubbard' into 'develop'

     Reading input from RuO2-110-0-0234.in

     Current dimensions of program PWSCF are:
     Max number of different atomic species (ntypx) = 10
     Max number of k-points (npk) =  40000
     Max angular momentum in pseudopotentials (lmaxx) =  4

     Reading input from environ.in:
     * Environ restarting
     * setting up water environment
     * using electronic solvent mode
     * setting boundary derivatives method to SCCS default

     file O.pbe-n-kjpaw_psl.0.1.UPF: wavefunction(s)  2P renormalized
     Message from routine setup:
     using ibrav=0 with symmetry is DISCOURAGED, use correct ibrav instead

     R & G space division:  proc/nbgrp/npool/nimage =      20
     Subspace diagonalization in iterative solution of the eigenvalue problem:
     one sub-group per band group will be used

     Using Slab Decomposition

     bravais-lattice index     =            0
     lattice parameter (alat)  =      12.3824  a.u.
     unit-cell volume          =    5825.9133 (a.u.)^3
     number of atoms/cell      =           48
     number of atomic types    =            3
     number of electrons       =       368.00
     number of Kohn-Sham states=          221
     kinetic-energy cutoff     =      50.0000  Ry
     charge density cutoff     =     500.0000  Ry
     scf convergence threshold =      1.0E-09
     mixing beta               =       0.7000
     number of iterations used =            8  local-TF  mixing
     energy convergence thresh.=      1.0E-04
     force convergence thresh. =      1.0E-04
     Exchange-correlation= PBE
                           (   1   4   3   4   0   0   0)
     nstep                     =          200

                                  Environ Setup Summary

          O. Andreussi, I. Dabo and N. Marzari, J. Chem. Phys. 136, 064102 (2012)

     in publications or presentations arising from this work.

     Parameters

     compensation onset threshold      =               0.1000E+00
     static permittivity               =                    78.30
     surface tension in input (dyn/cm) =                    47.90
     surface tension in internal units =               0.6153E-04
     external pressure in input (GPa)  =                    -0.36
     external pressure in inter. units =              -0.2447E-04

     Solvent Boundary

     solvent mode                      =               electronic
     derivatives method                =                    chain
     numerical core for derivatives    =                      fft
     switching function adopted        =                     SCCS
     density limit for vacuum region   =               0.5000E-02
     density limit for bulk solvent    =               0.1000E-03

     Electrostatic Setup

     electrostatic problem to solve    =              generalized
     numerical solver adopted          =                       cg
     type of auxiliary density adopted =                     none
     numerical core for poisson        =                      fft
     type of pbc corrections           =                parabolic
     numerical core for corrections    =                      1da

     celldm(1)=  12.382447  celldm(2)=   0.000000  celldm(3)=   0.000000
     celldm(4)=   0.000000  celldm(5)=   0.000000  celldm(6)=   0.000000

     crystal axes: (cart. coord. in units of alat)
               a(1) = (   1.000000   0.000000   0.000000 )
               a(2) = (   0.000000   0.908473   0.000000 )
               a(3) = (   0.000000   0.000000   3.377790 )

     reciprocal axes: (cart. coord. in units 2 pi/alat)
               b(1) = (  1.000000  0.000000  0.000000 )
               b(2) = (  0.000000  1.100748  0.000000 )
               b(3) = (  0.000000  0.000000  0.296052 )

     PseudoPot. # 1 for O  read from file:
     /gpfs/group/ixd4/default/Simon/pseudopotentials/materialscloud/SSSP_1.3.0_PBE_efficiency/O.pbe-n-kjpaw_psl.0.1.UPF
     MD5 check sum: 0234752ac141de4415c5fc33072bef88
     Pseudo is Projector augmented-wave + core cor, Zval =  6.0
     Generated using "atomic" code by A. Dal Corso  v.5.0.99 svn rev. 10869
     Shape of augmentation charge: BESSEL
     Using radial grid of 1095 points,  4 beta functions with:
                l(1) =   0
                l(2) =   0
                l(3) =   1
                l(4) =   1
     Q(r) pseudized with 0 coefficients

     PseudoPot. # 2 for Ru read from file:
     /gpfs/group/ixd4/default/Simon/pseudopotentials/materialscloud/SSSP_1.3.0_PBE_efficiency/Ru_ONCV_PBE-1.0.oncvpsp.upf
     MD5 check sum: be037bb81c227cfb9b1461a9f099f4bd
     Pseudo is Norm-conserving, Zval = 16.0
     Generated using ONCVPSP code by D. R. Hamann
     Using radial grid of 1458 points,  6 beta functions with:
                l(1) =   0
                l(2) =   0
                l(3) =   1
                l(4) =   1
                l(5) =   2
                l(6) =   2

     PseudoPot. # 3 for H  read from file:
     /gpfs/group/ixd4/default/Simon/pseudopotentials/materialscloud/SSSP_1.3.0_PBE_efficiency/H.pbe-rrkjus_psl.1.0.0.UPF
     MD5 check sum: f52b6d4d1c606e5624b1dc7b2218f220
     Pseudo is Ultrasoft, Zval =  1.0
     Generated using "atomic" code by A. Dal Corso  v.5.1
     Using radial grid of  929 points,  2 beta functions with:
                l(1) =   0
                l(2) =   0
     Q(r) pseudized with 0 coefficients

     atomic species   valence    mass     pseudopotential
        O              6.00    15.99940     O ( 1.00)
        Ru            16.00   101.07000     Ru( 1.00)
        H              1.00     1.00794     H ( 1.00)

      2 Sym. Ops. (no inversion) found

   Cartesian axes

     site n.     atom                  positions (alat units)
         1           O   tau(   1) = (   0.0366874   0.4038023   0.8894445  )
         2           O   tau(   2) = (   0.4668626   0.4243270   0.9200619  )
         3           O   tau(   3) = (  -0.0033496   0.0116721   1.0055670  )
         4           O   tau(   4) = (   0.4942207   0.0003548   1.0149626  )
         5           Ru  tau(   5) = (   0.2448459  -0.0071636   1.2131158  )
         6           Ru  tau(   6) = (   0.7461415  -0.0072572   1.2100252  )
         7           O   tau(   7) = (   0.2426407   0.2659949   1.2223131  )
         8           O   tau(   8) = (   0.7512520   0.2708370   1.2086778  )
         9           Ru  tau(   9) = (   0.0008428   0.4456215   1.2199080  )
        10           Ru  tau(  10) = (   0.5001680   0.4465558   1.1872325  )
        11           O   tau(  11) = (   0.2401917   0.6277342   1.2007374  )
        12           O   tau(  12) = (   0.7525169   0.6225712   1.1928052  )
        13           O   tau(  13) = (  -0.0069500  -0.0097883   1.3914997  )
        14           O   tau(  14) = (   0.4975397  -0.0085473   1.3902178  )
        15           O   tau(  15) = (  -0.0064013   0.4554943   1.5086677  )
        16           O   tau(  16) = (   0.4917455   0.4550942   1.4896407  )
        17           Ru  tau(  17) = (  -0.0086942  -0.0013482   1.6888985  )
        18           Ru  tau(  18) = (   0.4968866  -0.0013876   1.6888985  )
        19           O   tau(  19) = (   0.2452539   0.1725762   1.6888985  )
        20           O   tau(  20) = (   0.7425586   0.1788432   1.6888985  )
        21           Ru  tau(  21) = (   0.2506428   0.4538234   1.6888985  )
        22           Ru  tau(  22) = (   0.7392137   0.4537243   1.6888985  )
        23           O   tau(  23) = (   0.2460548   0.7342250   1.6888985  )
        24           O   tau(  24) = (   0.7419649   0.7279533   1.6888985  )
        25           O   tau(  25) = (  -0.0064013   0.4554943   1.8691260  )
        26           O   tau(  26) = (   0.4917455   0.4550942   1.8881530  )
        27           O   tau(  27) = (  -0.0069500  -0.0097883   1.9862940  )
        28           O   tau(  28) = (   0.4975397  -0.0085473   1.9875759  )
        29           Ru  tau(  29) = (   0.2448459  -0.0071636   2.1646779  )
        30           Ru  tau(  30) = (   0.7461415  -0.0072572   2.1677685  )
        31           O   tau(  31) = (   0.2426407   0.2659949   2.1554806  )
        32           O   tau(  32) = (   0.7512520   0.2708370   2.1691159  )
        33           Ru  tau(  33) = (   0.0008428   0.4456215   2.1578857  )
        34           Ru  tau(  34) = (   0.5001680   0.4465558   2.1905612  )
        35           O   tau(  35) = (   0.2401917   0.6277342   2.1770563  )
        36           O   tau(  36) = (   0.7525169   0.6225712   2.1849885  )
        37           O   tau(  37) = (  -0.0033496   0.0116721   2.3722300  )
        38           O   tau(  38) = (   0.4942207   0.0003548   2.3628345  )
        39           O   tau(  39) = (   0.0366874   0.4038023   2.4883492  )
        40           O   tau(  40) = (   0.4668626   0.4243270   2.4577318  )
        41           H   tau(  41) = (   0.1929543   0.4137816   0.8721705  )
        42           H   tau(  42) = (   0.1929543   0.4137816   2.5056199  )
        43           H   tau(  43) = (   0.0077343   0.2696734   0.8788568  )
        44           H   tau(  44) = (   0.0077343   0.2696734   2.4989335  )
        45           H   tau(  45) = (   0.4930952   0.1067903   0.9225046  )
        46           H   tau(  46) = (   0.4930952   0.1067903   2.4552857  )
        47           H   tau(  47) = (  -0.0020440   0.8247927   0.9002249  )
        48           H   tau(  48) = (  -0.0020440   0.8247927   2.4775654  )

     number of k points=     2  Marzari-Vanderbilt smearing, width (Ry)=  0.0300
                       cart. coord. in units 2pi/alat
        k(    1) = (   0.2500000   0.2751871   0.0000000), wk =   1.0000000
        k(    2) = (  -0.2500000   0.2751871   0.0000000), wk =   1.0000000

     Check: negative core charge=   -0.000001

     Initial potential from superposition of free atoms

     starting charge     367.9933, renormalised to     368.0000

     add environment contribution to local potential
     Polarization accuracy = 7.9E-12, # of iterations =  25

     negative rho (up, down):  3.071E-05 0.000E+00
     Starting wfcs are  240 randomized atomic wfcs
     Checking if some PAW data can be deallocated...

     Self-consistent Calculation

     iteration #  1     ecut=    50.00 Ry     beta= 0.70
     Davidson diagonalization with overlap
     ethr =  1.00E-02,  avg # of iterations =  4.0

     negative rho (up, down):  2.308E-08 0.000E+00

     total energy              =   -3435.36521990 Ry
     estimated scf accuracy    <       9.32375161 Ry
     electrostatic embedding   =      -0.00175038 Ry
     cavitation energy         =       0.01927371 Ry
     PV energy                 =      -0.08505455 Ry
     correction to one-el term =     223.71262350 Ry

[...]

     the potential shift due to the Gaussian-smeared nuclei is    -1.3500 ev

     End of self-consistent calculation

[...]
     atom   28 type  1   force =    -0.28182038    0.60511690  -38.44080148
     atom   29 type  2   force =     0.62346396    1.94796505 -169.81992274
     atom   30 type  2   force =    -0.51546240    1.75349750 -171.09083216
     atom   31 type  1   force =    -0.54817416   -0.00129178  -58.58364826
     atom   32 type  1   force =     0.10611941   -0.15803601  -62.17511148
     atom   33 type  2   force =     2.33589301   -2.10785620 -170.01733228
     atom   34 type  2   force =    -2.14753836   -2.98782129 -174.64123027
     atom   35 type  1   force =    -0.22525709   -0.63907162  -67.12797393
     atom   36 type  1   force =    -0.17257537   -0.34119697  -69.49637080
     atom   37 type  1   force =     0.43597888    0.70368929  -91.63092992
     atom   38 type  1   force =    -0.44466626    2.17709150  -92.49953231
     atom   39 type  1   force =     2.07334267   -1.74114010  -93.29370534
     atom   40 type  1   force =    -0.80905585    0.06005847  -98.63835805
     atom   41 type  3   force =    -2.51119060   -0.45762179   15.82335721
     atom   42 type  3   force =    -2.51119060   -0.45762179  -15.82335721
     atom   43 type  3   force =     0.69244745    2.61154830   15.56207392
     atom   44 type  3   force =     0.69244745    2.61154830  -15.56207392
     atom   45 type  3   force =    -0.12691963   -1.67054316   17.10756499
     atom   46 type  3   force =    -0.12691963   -1.67054316  -17.10756499
     atom   47 type  3   force =     0.08566826    2.21411667   17.60723047
     atom   48 type  3   force =     0.08566826    2.21411667  -17.60723047
     The core correction contribution to forces
     atom    1 type  1   force =    -0.01278756    0.01250262   -0.00423202
     atom    2 type  1   force =     0.00019287   -0.00010481   -0.00952962
     atom    3 type  1   force =    -0.00003702    0.01254180    0.00494633
     atom    4 type  1   force =     0.00016259   -0.01412233   -0.00077078
     atom    5 type  2   force =     0.00000000    0.00000000    0.00000000
     atom    6 type  2   force =     0.00000000    0.00000000    0.00000000
     atom    7 type  1   force =    -0.00013665    0.00001658    0.00232112
     atom    8 type  1   force =     0.00069187    0.00015866    0.00139288
     atom    9 type  2   force =     0.00000000    0.00000000    0.00000000
     atom   10 type  2   force =     0.00000000    0.00000000    0.00000000
     atom   11 type  1   force =    -0.00033196    0.00000691   -0.00061691
     atom   12 type  1   force =     0.00094332   -0.00014804   -0.00119883
     atom   13 type  1   force =    -0.00004881   -0.00065535   -0.00021261
     atom   14 type  1   force =     0.00007493   -0.00029066    0.00039281
     atom   15 type  1   force =    -0.00017013    0.00058141    0.00227827
     atom   16 type  1   force =    -0.00033568    0.00073076   -0.00217865
     atom   17 type  2   force =     0.00000000    0.00000000    0.00000000
     atom   18 type  2   force =     0.00000000    0.00000000    0.00000000
     atom   19 type  1   force =     0.00013550   -0.00048171   -0.00000207
     atom   20 type  1   force =     0.00031793   -0.00047178   -0.00000208
     atom   21 type  2   force =     0.00000000    0.00000000    0.00000000
     atom   22 type  2   force =     0.00000000    0.00000000    0.00000000
     atom   23 type  1   force =     0.00006153    0.00052220   -0.00000197
     atom   24 type  1   force =     0.00042305    0.00047462   -0.00000195
     atom   25 type  1   force =    -0.00017013    0.00058151   -0.00228086
     atom   26 type  1   force =    -0.00033562    0.00073098    0.00217646
     atom   27 type  1   force =    -0.00004881   -0.00065552    0.00021038
     atom   28 type  1   force =     0.00007493   -0.00029083   -0.00039504
     atom   29 type  2   force =     0.00000000    0.00000000    0.00000000
     atom   30 type  2   force =     0.00000000    0.00000000    0.00000000
     atom   31 type  1   force =    -0.00013664    0.00001659   -0.00232305
     atom   32 type  1   force =     0.00069178    0.00015881   -0.00139487
     atom   33 type  2   force =     0.00000000    0.00000000    0.00000000
     atom   34 type  2   force =     0.00000000    0.00000000    0.00000000
     atom   35 type  1   force =    -0.00033182    0.00000680    0.00061490
     atom   36 type  1   force =     0.00094316   -0.00014821    0.00119680
     atom   37 type  1   force =    -0.00003701    0.01254388   -0.00495098
     atom   38 type  1   force =     0.00016255   -0.01412449    0.00076690
     atom   39 type  1   force =    -0.01278824    0.01250297    0.00423101
     atom   40 type  1   force =     0.00019275   -0.00010509    0.00952721
     atom   41 type  3   force =     0.00000000    0.00000000    0.00000000
     atom   42 type  3   force =     0.00000000    0.00000000    0.00000000
     atom   43 type  3   force =     0.00000000    0.00000000    0.00000000
     atom   44 type  3   force =     0.00000000    0.00000000    0.00000000
     atom   45 type  3   force =     0.00000000    0.00000000    0.00000000
     atom   46 type  3   force =     0.00000000    0.00000000    0.00000000
     atom   47 type  3   force =     0.00000000    0.00000000    0.00000000
     atom   48 type  3   force =     0.00000000    0.00000000    0.00000000
     The Hubbard contrib.    to forces
     atom    1 type  1   force =     0.00000000    0.00000000    0.00000000
     atom    2 type  1   force =     0.00000000    0.00000000    0.00000000
     atom    3 type  1   force =     0.00000000    0.00000000    0.00000000
     atom    4 type  1   force =     0.00000000    0.00000000    0.00000000
     atom    5 type  2   force =     0.00000000    0.00000000    0.00000000
     atom    6 type  2   force =     0.00000000    0.00000000    0.00000000
     atom    7 type  1   force =     0.00000000    0.00000000    0.00000000
     atom    8 type  1   force =     0.00000000    0.00000000    0.00000000
     atom    9 type  2   force =     0.00000000    0.00000000    0.00000000
     atom   10 type  2   force =     0.00000000    0.00000000    0.00000000
     atom   11 type  1   force =     0.00000000    0.00000000    0.00000000
     atom   12 type  1   force =     0.00000000    0.00000000    0.00000000
     atom   13 type  1   force =     0.00000000    0.00000000    0.00000000
     atom   14 type  1   force =     0.00000000    0.00000000    0.00000000
     atom   15 type  1   force =     0.00000000    0.00000000    0.00000000
     atom   16 type  1   force =     0.00000000    0.00000000    0.00000000
     atom   17 type  2   force =     0.00000000    0.00000000    0.00000000
     atom   18 type  2   force =     0.00000000    0.00000000    0.00000000
     atom   19 type  1   force =     0.00000000    0.00000000    0.00000000
     atom   20 type  1   force =     0.00000000    0.00000000    0.00000000
     atom   21 type  2   force =     0.00000000    0.00000000    0.00000000
     atom   22 type  2   force =     0.00000000    0.00000000    0.00000000
     atom   23 type  1   force =     0.00000000    0.00000000    0.00000000
     atom   24 type  1   force =     0.00000000    0.00000000    0.00000000
     atom   25 type  1   force =     0.00000000    0.00000000    0.00000000
     atom   26 type  1   force =     0.00000000    0.00000000    0.00000000
     atom   27 type  1   force =     0.00000000    0.00000000    0.00000000
     atom   28 type  1   force =     0.00000000    0.00000000    0.00000000
     atom   29 type  2   force =     0.00000000    0.00000000    0.00000000
     atom   30 type  2   force =     0.00000000    0.00000000    0.00000000
     atom   31 type  1   force =     0.00000000    0.00000000    0.00000000
     atom   32 type  1   force =     0.00000000    0.00000000    0.00000000
     atom   33 type  2   force =     0.00000000    0.00000000    0.00000000
     atom   34 type  2   force =     0.00000000    0.00000000    0.00000000
     atom   35 type  1   force =     0.00000000    0.00000000    0.00000000
     atom   36 type  1   force =     0.00000000    0.00000000    0.00000000
     atom   37 type  1   force =     0.00000000    0.00000000    0.00000000
     atom   38 type  1   force =     0.00000000    0.00000000    0.00000000
     atom   39 type  1   force =     0.00000000    0.00000000    0.00000000
     atom   40 type  1   force =     0.00000000    0.00000000    0.00000000
     atom   41 type  3   force =     0.00000000    0.00000000    0.00000000
     atom   42 type  3   force =     0.00000000    0.00000000    0.00000000
     atom   43 type  3   force =     0.00000000    0.00000000    0.00000000
     atom   44 type  3   force =     0.00000000    0.00000000    0.00000000
     atom   45 type  3   force =     0.00000000    0.00000000    0.00000000
     atom   46 type  3   force =     0.00000000    0.00000000    0.00000000
     atom   47 type  3   force =     0.00000000    0.00000000    0.00000000
     atom   48 type  3   force =     0.00000000    0.00000000    0.00000000
     The SCF correction term to forces
     atom    1 type  1   force =     0.00000025    0.00000049    0.00000114
     atom    2 type  1   force =    -0.00000012    0.00000029    0.00000147
     atom    3 type  1   force =    -0.00000007   -0.00000059    0.00000219
     atom    4 type  1   force =     0.00000014   -0.00000035    0.00000199
     atom    5 type  2   force =     0.00000137   -0.00000090    0.00000551
     atom    6 type  2   force =    -0.00000146   -0.00000067    0.00000595
     atom    7 type  1   force =     0.00000067   -0.00000033    0.00000231
     atom    8 type  1   force =    -0.00000074   -0.00000083    0.00000231
     atom    9 type  2   force =     0.00000034    0.00000101    0.00000612
     atom   10 type  2   force =    -0.00000006    0.00000086    0.00000553
     atom   11 type  1   force =     0.00000066    0.00000055    0.00000198
     atom   12 type  1   force =    -0.00000073    0.00000099    0.00000216
     atom   13 type  1   force =    -0.00000028   -0.00000021    0.00000148
     atom   14 type  1   force =     0.00000030   -0.00000013    0.00000222
     atom   15 type  1   force =     0.00000032    0.00000016    0.00000229
     atom   16 type  1   force =    -0.00000022    0.00000015    0.00000210
     atom   17 type  2   force =     0.00000022   -0.00000034    0.00000000
     atom   18 type  2   force =    -0.00000018   -0.00000015    0.00000001
     atom   19 type  1   force =     0.00000106    0.00000047    0.00000000
     atom   20 type  1   force =    -0.00000113    0.00000009    0.00000000
     atom   21 type  2   force =     0.00000111    0.00000025    0.00000000
     atom   22 type  2   force =    -0.00000111    0.00000019    0.00000000
     atom   23 type  1   force =     0.00000101   -0.00000050    0.00000000
     atom   24 type  1   force =    -0.00000108   -0.00000011    0.00000000
     atom   25 type  1   force =     0.00000032    0.00000016   -0.00000229
     atom   26 type  1   force =    -0.00000022    0.00000015   -0.00000209
     atom   27 type  1   force =    -0.00000028   -0.00000021   -0.00000147
     atom   28 type  1   force =     0.00000030   -0.00000013   -0.00000222
     atom   29 type  2   force =     0.00000137   -0.00000090   -0.00000552
     atom   30 type  2   force =    -0.00000146   -0.00000067   -0.00000596
     atom   31 type  1   force =     0.00000067   -0.00000033   -0.00000231
     atom   32 type  1   force =    -0.00000073   -0.00000083   -0.00000232
     atom   33 type  2   force =     0.00000033    0.00000101   -0.00000613
     atom   34 type  2   force =    -0.00000005    0.00000085   -0.00000554
     atom   35 type  1   force =     0.00000065    0.00000055   -0.00000199
     atom   36 type  1   force =    -0.00000072    0.00000099   -0.00000216
     atom   37 type  1   force =    -0.00000007   -0.00000059   -0.00000220
     atom   38 type  1   force =     0.00000014   -0.00000035   -0.00000200
     atom   39 type  1   force =     0.00000025    0.00000049   -0.00000115
     atom   40 type  1   force =    -0.00000012    0.00000029   -0.00000148
     atom   41 type  3   force =     0.00000011    0.00000006    0.00000020
     atom   42 type  3   force =     0.00000011    0.00000006   -0.00000020
     atom   43 type  3   force =     0.00000000   -0.00000006    0.00000019
     atom   44 type  3   force =     0.00000000   -0.00000006   -0.00000019
     atom   45 type  3   force =     0.00000001   -0.00000010    0.00000029
     atom   46 type  3   force =     0.00000001   -0.00000010   -0.00000029
     atom   47 type  3   force =     0.00000000   -0.00000004    0.00000025
     atom   48 type  3   force =     0.00000000   -0.00000004   -0.00000025

     Total force =     0.000273     Total SCF correction =     0.000020
     Energy error            =      1.2E-07 Ry
     Gradient error          =      7.6E-05 Ry/Bohr

     bfgs converged in  54 scf cycles and  53 bfgs steps
     (criteria: energy <  1.0E-04 Ry, force <  1.0E-04 Ry/Bohr)

     End of BFGS Geometry Optimization

     Final energy             =   -3437.6642548356 Ry

     File /storage/home/mgm6007/ixd4/Maria/StrainJin_Files/RuO2-110-0-0234/RuO2-110-0-0234.bfgs deleted, as requested
Begin final coordinates

ATOMIC_POSITIONS (crystal)
O             0.0355903527        0.4373485991        0.2624540854
O             0.4697648866        0.4434805087        0.2720642583
O            -0.0032383178        0.0109585813        0.2992227993
O             0.4948907317       -0.0001424142        0.3011515783
Ru            0.2483934623       -0.0069975380        0.3594625182
Ru            0.7443571298       -0.0076479487        0.3586991512
O             0.2437108722        0.3041065384        0.3645310840
O             0.7495345154        0.3054463165        0.3602414427
Ru           -0.0011349622        0.4917317674        0.3597147978
Ru            0.4982412911        0.4926488611        0.3516041054
O             0.2429609513        0.6825344735        0.3533444895
O             0.7501932324        0.6800440955        0.3506287765
O            -0.0055400757       -0.0109708196        0.4113588847
O             0.4974021965       -0.0088353602        0.4115346580
O            -0.0089823575        0.5093628022        0.4465641145
O             0.4918864820        0.5076487279        0.4431632610
Ru           -0.0037527728        0.0051002656        0.5000010000
Ru            0.4966571017        0.0054938898        0.5000010000
O             0.2472386634        0.1923727629        0.5000010000
O             0.7476285586        0.1924834733        0.5000010000
Ru            0.2438659339        0.5062776399        0.5000010000
Ru            0.7389553777        0.5062446798        0.5000010000
O             0.2481421911        0.8197519471        0.5000010000
O             0.7466896879        0.8197347692        0.5000010000
O            -0.0089823575        0.5093628022        0.5534368855
O             0.4918864820        0.5076487279        0.5568377390
O            -0.0055400757       -0.0109708196        0.5886421153
O             0.4974021965       -0.0088353602        0.5884663420
Ru            0.2483934623       -0.0069975380        0.6405384818
Ru            0.7443571298       -0.0076479487        0.6413018488
O             0.2437108722        0.3041065384        0.6354699160
O             0.7495345154        0.3054463165        0.6397595573
Ru           -0.0011349622        0.4917317674        0.6402862022
Ru            0.4982412911        0.4926488611        0.6483968946
O             0.2429609513        0.6825344735        0.6466565105
O             0.7501932324        0.6800440955        0.6493722235
O            -0.0032383178        0.0109585813        0.7007792007
O             0.4948907317       -0.0001424142        0.6988504217
O             0.0355903527        0.4373485991        0.7375469146
O             0.4697648866        0.4434805087        0.7279367417
H             0.1860086539        0.4510107070        0.2561615452
H             0.1860086539        0.4510107070        0.7438384548
H             0.0112956592        0.2708897241        0.2630922713
H             0.0112956592        0.2708897241        0.7369077287
H             0.4929675279        0.1399268940        0.2767128737
H             0.4929675279        0.1399268940        0.7232871263
H            -0.0033796025        0.8979427700        0.2672614250
H            -0.0033796025        0.8979427700        0.7327385750
End final coordinates

     Writing all to output data dir /storage/home/mgm6007/ixd4/Maria/StrainJin_Files/RuO2-110-0-0234/RuO2-110-0-0234.save/

     General routines

     Parallel routines

     Environ routines

   This run was terminated on:  15:27: 2  28Jul2023

   JOB DONE.