     Program PWSCF v.7.2 starts on 27Jul2023 at 11:58:12
        Git branch: heads/qe-7.2
        Last git commit: b4c5e8deeb7d1863e7553a87b45f8d22c21926a5
        Last git commit date: Mon Mar 27 16:12:09 2023 +0000
        Last git commit subject: Merge branch 'merge_fix_hubbard' into 'develop'

     Reading input from RuO2-110-0-0234.in

     Current dimensions of program PWSCF are:
     Max number of different atomic species (ntypx) = 10
     Max number of k-points (npk) =  40000
     Max angular momentum in pseudopotentials (lmaxx) =  4

     Reading input from environ.in:
     * Environ restarting
     * setting up water environment
     * using electronic solvent mode
     * setting boundary derivatives method to SCCS default

     File /storage/home/mgm6007/ixd4/Maria/Strain2_Files/RuO2-110-0-0234/RuO2-110-0-0234.update deleted, as requested

     File /storage/home/mgm6007/ixd4/Maria/Strain2_Files/RuO2-110-0-0234/RuO2-110-0-0234.bfgs deleted, as requested
     file O.pbe-n-kjpaw_psl.0.1.UPF: wavefunction(s)  2P renormalized
     Message from routine setup:
     using ibrav=0 with symmetry is DISCOURAGED, use correct ibrav instead

     R & G space division:  proc/nbgrp/npool/nimage =      20
     Subspace diagonalization in iterative solution of the eigenvalue problem:
     one sub-group per band group will be used

     Using Slab Decomposition

     bravais-lattice index     =            0
     lattice parameter (alat)  =      12.2467  a.u.
     unit-cell volume          =    5883.2137 (a.u.)^3
     number of atoms/cell      =           48
     number of atomic types    =            3
     number of electrons       =       368.00
     number of Kohn-Sham states=          221
     kinetic-energy cutoff     =      50.0000  Ry
     charge density cutoff     =     500.0000  Ry
     scf convergence threshold =      1.0E-09
     mixing beta               =       0.7000
     number of iterations used =            8  local-TF  mixing
     energy convergence thresh.=      1.0E-04
     force convergence thresh. =      1.0E-04
     Exchange-correlation= PBE
                           (   1   4   3   4   0   0   0)
     nstep                     =          200

                                  Environ Setup Summary

          O. Andreussi, I. Dabo and N. Marzari, J. Chem. Phys. 136, 064102 (2012)

     in publications or presentations arising from this work.

     Parameters

     compensation onset threshold      =               0.1000E+00
     static permittivity               =                    78.30
     surface tension in input (dyn/cm) =                    47.90
     surface tension in internal units =               0.6153E-04
     external pressure in input (GPa)  =                    -0.36
     external pressure in inter. units =              -0.2447E-04

     Solvent Boundary

     solvent mode                      =               electronic
     derivatives method                =                    chain
     numerical core for derivatives    =                      fft
     switching function adopted        =                     SCCS
     density limit for vacuum region   =               0.5000E-02
     density limit for bulk solvent    =               0.1000E-03

     Electrostatic Setup

     electrostatic problem to solve    =              generalized
     numerical solver adopted          =                       cg
     type of auxiliary density adopted =                     none
     numerical core for poisson        =                      fft
     type of pbc corrections           =                parabolic
     numerical core for corrections    =                      1da

     celldm(1)=  12.246684  celldm(2)=   0.000000  celldm(3)=   0.000000
     celldm(4)=   0.000000  celldm(5)=   0.000000  celldm(6)=   0.000000

     crystal axes: (cart. coord. in units of alat)
               a(1) = (   1.000000   0.000000   0.000000 )
               a(2) = (   0.000000   0.937861   0.000000 )
               a(3) = (   0.000000   0.000000   3.415235 )

     reciprocal axes: (cart. coord. in units 2 pi/alat)
               b(1) = (  1.000000  0.000000  0.000000 )
               b(2) = (  0.000000  1.066256  0.000000 )
               b(3) = (  0.000000  0.000000  0.292806 )

     PseudoPot. # 1 for O  read from file:
     /gpfs/group/ixd4/default/Simon/pseudopotentials/materialscloud/SSSP_1.3.0_PBE_efficiency/O.pbe-n-kjpaw_psl.0.1.UPF
     MD5 check sum: 0234752ac141de4415c5fc33072bef88
     Pseudo is Projector augmented-wave + core cor, Zval =  6.0
     Generated using "atomic" code by A. Dal Corso  v.5.0.99 svn rev. 10869
     Shape of augmentation charge: BESSEL
     Using radial grid of 1095 points,  4 beta functions with:
                l(1) =   0
                l(2) =   0
                l(3) =   1
                l(4) =   1
     Q(r) pseudized with 0 coefficients

     PseudoPot. # 2 for Ru read from file:
     /gpfs/group/ixd4/default/Simon/pseudopotentials/materialscloud/SSSP_1.3.0_PBE_efficiency/Ru_ONCV_PBE-1.0.oncvpsp.upf
     MD5 check sum: be037bb81c227cfb9b1461a9f099f4bd
     Pseudo is Norm-conserving, Zval = 16.0
     Generated using ONCVPSP code by D. R. Hamann
     Using radial grid of 1458 points,  6 beta functions with:
                l(1) =   0
                l(2) =   0
                l(3) =   1
                l(4) =   1
                l(5) =   2
                l(6) =   2

     PseudoPot. # 3 for H  read from file:
     /gpfs/group/ixd4/default/Simon/pseudopotentials/materialscloud/SSSP_1.3.0_PBE_efficiency/H.pbe-rrkjus_psl.1.0.0.UPF
     MD5 check sum: f52b6d4d1c606e5624b1dc7b2218f220
     Pseudo is Ultrasoft, Zval =  1.0
     Generated using "atomic" code by A. Dal Corso  v.5.1
     Using radial grid of  929 points,  2 beta functions with:
                l(1) =   0
                l(2) =   0
     Q(r) pseudized with 0 coefficients

     atomic species   valence    mass     pseudopotential
        O              6.00    15.99940     O ( 1.00)
        Ru            16.00   101.07000     Ru( 1.00)
        H              1.00     1.00794     H ( 1.00)

      2 Sym. Ops. (no inversion) found

   Cartesian axes

     site n.     atom                  positions (alat units)
         1           O   tau(   1) = (   0.0171195   0.3921921   0.9050357  )
         2           O   tau(   2) = (   0.4778014   0.4204876   0.9301511  )
         3           O   tau(   3) = (  -0.0020895   0.0101707   1.0202438  )
         4           O   tau(   4) = (   0.4975450   0.0061879   1.0251871  )
         5           Ru  tau(   5) = (   0.2506050  -0.0059807   1.2258435  )
         6           Ru  tau(   6) = (   0.7454833  -0.0057469   1.2249046  )
         7           O   tau(   7) = (   0.2448332   0.2837658   1.2434990  )
         8           O   tau(   8) = (   0.7504710   0.2853404   1.2367491  )
         9           Ru  tau(   9) = (  -0.0014316   0.4622499   1.2332079  )
        10           Ru  tau(  10) = (   0.4983901   0.4625119   1.2008037  )
        11           O   tau(  11) = (   0.2423331   0.6429364   1.2053143  )
        12           O   tau(  12) = (   0.7524838   0.6415508   1.2023469  )
        13           O   tau(  13) = (  -0.0029411  -0.0095677   1.4043417  )
        14           O   tau(  14) = (   0.4982100  -0.0079041   1.4051934  )
        15           O   tau(  15) = (  -0.0009203   0.4784681   1.5273187  )
        16           O   tau(  16) = (   0.4981178   0.4774909   1.5111334  )
        17           Ru  tau(  17) = (  -0.0032228   0.0056094   1.7076210  )
        18           Ru  tau(  18) = (   0.4969378   0.0049679   1.7076210  )
        19           O   tau(  19) = (   0.2469385   0.1818814   1.7076210  )
        20           O   tau(  20) = (   0.7449149   0.1825490   1.7076210  )
        21           Ru  tau(  21) = (   0.2549082   0.4754773   1.7076210  )
        22           Ru  tau(  22) = (   0.7463494   0.4752976   1.7076210  )
        23           O   tau(  23) = (   0.2470591   0.7683181   1.7076210  )
        24           O   tau(  24) = (   0.7452499   0.7675241   1.7076210  )
        25           O   tau(  25) = (  -0.0009203   0.4784681   1.8879200  )
        26           O   tau(  26) = (   0.4981178   0.4774909   1.9041052  )
        27           O   tau(  27) = (  -0.0029411  -0.0095677   2.0108969  )
        28           O   tau(  28) = (   0.4982100  -0.0079041   2.0100453  )
        29           Ru  tau(  29) = (   0.2506050  -0.0059807   2.1893951  )
        30           Ru  tau(  30) = (   0.7454833  -0.0057469   2.1903341  )
        31           O   tau(  31) = (   0.2448332   0.2837658   2.1717396  )
        32           O   tau(  32) = (   0.7504710   0.2853404   2.1784895  )
        33           Ru  tau(  33) = (  -0.0014316   0.4622499   2.1820307  )
        34           Ru  tau(  34) = (   0.4983901   0.4625119   2.2144350  )
        35           O   tau(  35) = (   0.2423331   0.6429364   2.2099244  )
        36           O   tau(  36) = (   0.7524838   0.6415508   2.2128918  )
        37           O   tau(  37) = (  -0.0020895   0.0101707   2.3949983  )
        38           O   tau(  38) = (   0.4975450   0.0061879   2.3900549  )
        39           O   tau(  39) = (   0.0171195   0.3921921   2.5102029  )
        40           O   tau(  40) = (   0.4778014   0.4204876   2.4850876  )
        41           H   tau(  41) = (   0.1633195   0.4136801   0.8707951  )
        42           H   tau(  42) = (   0.1633195   0.4136801   2.5444401  )
        43           H   tau(  43) = (   0.0059126   0.2357004   0.9316269  )
        44           H   tau(  44) = (   0.0059126   0.2357004   2.4836083  )
        45           H   tau(  45) = (   0.4957613   0.1353089   0.9428789  )
        46           H   tau(  46) = (   0.4957613   0.1353089   2.4723564  )
        47           H   tau(  47) = (  -0.0029366   0.8603517   0.8982823  )
        48           H   tau(  48) = (  -0.0029366   0.8603517   2.5169529  )

     number of k points=     2  Marzari-Vanderbilt smearing, width (Ry)=  0.0300
                       cart. coord. in units 2pi/alat
        k(    1) = (   0.2500000   0.2665641   0.0000000), wk =   1.0000000
        k(    2) = (  -0.2500000   0.2665641   0.0000000), wk =   1.0000000

     Check: negative core charge=   -0.000001

     Initial potential from superposition of free atoms

     starting charge     367.9933, renormalised to     368.0000

     add environment contribution to local potential
     Polarization accuracy = 5.3E-12, # of iterations =  25

     negative rho (up, down):  3.034E-05 0.000E+00
     Starting wfcs are  240 randomized atomic wfcs
     Checking if some PAW data can be deallocated...

     Self-consistent Calculation

     iteration #  1     ecut=    50.00 Ry     beta= 0.70
     Davidson diagonalization with overlap
     ethr =  1.00E-02,  avg # of iterations =  3.0

     negative rho (up, down):  2.565E-08 0.000E+00

     total energy              =   -3435.58005504 Ry
     estimated scf accuracy    <       9.03752570 Ry
     electrostatic embedding   =      -0.00175868 Ry
     cavitation energy         =       0.01951626 Ry
     PV energy                 =      -0.08554194 Ry
[...]
     atom   27 type  1   force =     0.18445257    0.65520883  -38.20299673
     atom   28 type  1   force =    -0.29534443    0.58899130  -37.85649812
     atom   29 type  2   force =     0.49465042    2.13562304 -168.18817324
     atom   30 type  2   force =    -0.33004598    1.93614901 -169.50660759
     atom   31 type  1   force =    -0.60417254    0.31399653  -58.38267793
     atom   32 type  1   force =     0.16331230    0.18294893  -61.79867246
     atom   33 type  2   force =     2.25882666   -2.27761702 -167.60543482
     atom   34 type  2   force =    -2.12301526   -3.02439646 -173.34988020
     atom   35 type  1   force =    -0.26132744   -0.96256618  -66.01683231
     atom   36 type  1   force =    -0.13081553   -0.71986880  -68.08658187
     atom   37 type  1   force =     0.39575533    0.69494877  -91.01347840
     atom   38 type  1   force =    -0.39747219    2.14499480  -91.76182609
     atom   39 type  1   force =     2.11187534   -1.76672833  -92.31191722
     atom   40 type  1   force =    -0.82689339    0.02395952  -97.73072946
     atom   41 type  3   force =    -2.46282827   -0.46727956   15.67726466
     atom   42 type  3   force =    -2.46282827   -0.46727956  -15.67726466
     atom   43 type  3   force =     0.69387411    2.65359458   15.39290684
     atom   44 type  3   force =     0.69387411    2.65359458  -15.39290684
     atom   45 type  3   force =    -0.11724670   -1.77464350   16.98310331
     atom   46 type  3   force =    -0.11724670   -1.77464350  -16.98310331
     atom   47 type  3   force =     0.07270692    2.26410419   17.45193289
     atom   48 type  3   force =     0.07270692    2.26410419  -17.45193289
     The core correction contribution to forces
     atom    1 type  1   force =    -0.01271211    0.01271101   -0.00402345
     atom    2 type  1   force =     0.00031099   -0.00021782   -0.00950409
     atom    3 type  1   force =    -0.00003708    0.01279888    0.00460165
     atom    4 type  1   force =     0.00012064   -0.01423920   -0.00042467
     atom    5 type  2   force =     0.00000000    0.00000000    0.00000000
     atom    6 type  2   force =     0.00000000    0.00000000    0.00000000
     atom    7 type  1   force =    -0.00016460   -0.00029461    0.00213454
     atom    8 type  1   force =     0.00070379   -0.00015874    0.00123115
     atom    9 type  2   force =     0.00000000    0.00000000    0.00000000
     atom   10 type  2   force =     0.00000000    0.00000000    0.00000000
     atom   11 type  1   force =    -0.00033579    0.00032375   -0.00040832
     atom   12 type  1   force =     0.00095974    0.00018584   -0.00089971
     atom   13 type  1   force =    -0.00001184   -0.00068166    0.00004082
     atom   14 type  1   force =     0.00015114   -0.00024674    0.00050087
     atom   15 type  1   force =     0.00012480    0.00056841    0.00231952
     atom   16 type  1   force =    -0.00003215    0.00076644   -0.00264820
     atom   17 type  2   force =     0.00000000    0.00000000    0.00000000
     atom   18 type  2   force =     0.00000000    0.00000000    0.00000000
     atom   19 type  1   force =    -0.00015157   -0.00026130   -0.00000203
     atom   20 type  1   force =     0.00017386   -0.00022610   -0.00000205
     atom   21 type  2   force =     0.00000000    0.00000000    0.00000000
     atom   22 type  2   force =     0.00000000    0.00000000    0.00000000
     atom   23 type  1   force =    -0.00022609    0.00029006   -0.00000193
     atom   24 type  1   force =     0.00024174    0.00023821   -0.00000191
     atom   25 type  1   force =     0.00012479    0.00056850   -0.00232211
     atom   26 type  1   force =    -0.00003211    0.00076665    0.00264603
     atom   27 type  1   force =    -0.00001184   -0.00068182   -0.00004302
     atom   28 type  1   force =     0.00015115   -0.00024690   -0.00050310
     atom   29 type  2   force =     0.00000000    0.00000000    0.00000000
     atom   30 type  2   force =     0.00000000    0.00000000    0.00000000
     atom   31 type  1   force =    -0.00016457   -0.00029460   -0.00213639
     atom   32 type  1   force =     0.00070369   -0.00015861   -0.00123306
     atom   33 type  2   force =     0.00000000    0.00000000    0.00000000
     atom   34 type  2   force =     0.00000000    0.00000000    0.00000000
     atom   35 type  1   force =    -0.00033563    0.00032365    0.00040636
     atom   36 type  1   force =     0.00095958    0.00018570    0.00089773
     atom   37 type  1   force =    -0.00003707    0.01280091   -0.00460634
     atom   38 type  1   force =     0.00012059   -0.01424141    0.00042075
     atom   39 type  1   force =    -0.01271278    0.01271138    0.00402245
     atom   40 type  1   force =     0.00031088   -0.00021810    0.00950174
     atom   41 type  3   force =     0.00000000    0.00000000    0.00000000
     atom   42 type  3   force =     0.00000000    0.00000000    0.00000000
     atom   43 type  3   force =     0.00000000    0.00000000    0.00000000
     atom   44 type  3   force =     0.00000000    0.00000000    0.00000000
     atom   45 type  3   force =     0.00000000    0.00000000    0.00000000
     atom   46 type  3   force =     0.00000000    0.00000000    0.00000000
     atom   47 type  3   force =     0.00000000    0.00000000    0.00000000
     atom   48 type  3   force =     0.00000000    0.00000000    0.00000000
     The Hubbard contrib.    to forces
     atom    1 type  1   force =     0.00000000    0.00000000    0.00000000
     atom    2 type  1   force =     0.00000000    0.00000000    0.00000000
     atom    3 type  1   force =     0.00000000    0.00000000    0.00000000
     atom    4 type  1   force =     0.00000000    0.00000000    0.00000000
     atom    5 type  2   force =     0.00000000    0.00000000    0.00000000
     atom    6 type  2   force =     0.00000000    0.00000000    0.00000000
     atom    7 type  1   force =     0.00000000    0.00000000    0.00000000
     atom    8 type  1   force =     0.00000000    0.00000000    0.00000000
     atom    9 type  2   force =     0.00000000    0.00000000    0.00000000
     atom   10 type  2   force =     0.00000000    0.00000000    0.00000000
     atom   11 type  1   force =     0.00000000    0.00000000    0.00000000
     atom   12 type  1   force =     0.00000000    0.00000000    0.00000000
     atom   13 type  1   force =     0.00000000    0.00000000    0.00000000
     atom   14 type  1   force =     0.00000000    0.00000000    0.00000000
     atom   15 type  1   force =     0.00000000    0.00000000    0.00000000
     atom   16 type  1   force =     0.00000000    0.00000000    0.00000000
     atom   17 type  2   force =     0.00000000    0.00000000    0.00000000
     atom   18 type  2   force =     0.00000000    0.00000000    0.00000000
     atom   19 type  1   force =     0.00000000    0.00000000    0.00000000
     atom   20 type  1   force =     0.00000000    0.00000000    0.00000000
     atom   21 type  2   force =     0.00000000    0.00000000    0.00000000
     atom   22 type  2   force =     0.00000000    0.00000000    0.00000000
     atom   23 type  1   force =     0.00000000    0.00000000    0.00000000
     atom   24 type  1   force =     0.00000000    0.00000000    0.00000000
     atom   25 type  1   force =     0.00000000    0.00000000    0.00000000
     atom   26 type  1   force =     0.00000000    0.00000000    0.00000000
     atom   27 type  1   force =     0.00000000    0.00000000    0.00000000
     atom   28 type  1   force =     0.00000000    0.00000000    0.00000000
     atom   29 type  2   force =     0.00000000    0.00000000    0.00000000
     atom   30 type  2   force =     0.00000000    0.00000000    0.00000000
     atom   31 type  1   force =     0.00000000    0.00000000    0.00000000
     atom   32 type  1   force =     0.00000000    0.00000000    0.00000000
     atom   33 type  2   force =     0.00000000    0.00000000    0.00000000
     atom   34 type  2   force =     0.00000000    0.00000000    0.00000000
     atom   35 type  1   force =     0.00000000    0.00000000    0.00000000
     atom   36 type  1   force =     0.00000000    0.00000000    0.00000000
     atom   37 type  1   force =     0.00000000    0.00000000    0.00000000
     atom   38 type  1   force =     0.00000000    0.00000000    0.00000000
     atom   39 type  1   force =     0.00000000    0.00000000    0.00000000
     atom   40 type  1   force =     0.00000000    0.00000000    0.00000000
     atom   41 type  3   force =     0.00000000    0.00000000    0.00000000
     atom   42 type  3   force =     0.00000000    0.00000000    0.00000000
     atom   43 type  3   force =     0.00000000    0.00000000    0.00000000
     atom   44 type  3   force =     0.00000000    0.00000000    0.00000000
     atom   45 type  3   force =     0.00000000    0.00000000    0.00000000
     atom   46 type  3   force =     0.00000000    0.00000000    0.00000000
     atom   47 type  3   force =     0.00000000    0.00000000    0.00000000
     atom   48 type  3   force =     0.00000000    0.00000000    0.00000000
     The SCF correction term to forces
     atom    1 type  1   force =     0.00000046    0.00000015    0.00000187
     atom    2 type  1   force =    -0.00000014   -0.00000104    0.00000130
     atom    3 type  1   force =    -0.00000078   -0.00000006    0.00000127
     atom    4 type  1   force =     0.00000065    0.00000046    0.00000062
     atom    5 type  2   force =     0.00000039    0.00000047    0.00000011
     atom    6 type  2   force =    -0.00000024    0.00000023   -0.00000050
     atom    7 type  1   force =    -0.00000018   -0.00000022    0.00000034
     atom    8 type  1   force =     0.00000014   -0.00000114    0.00000027
     atom    9 type  2   force =     0.00000003   -0.00000024    0.00000185
     atom   10 type  2   force =     0.00000001   -0.00000051    0.00000140
     atom   11 type  1   force =    -0.00000033    0.00000013    0.00000044
     atom   12 type  1   force =     0.00000034    0.00000114    0.00000030
     atom   13 type  1   force =    -0.00000053   -0.00000003   -0.00000025
     atom   14 type  1   force =     0.00000053    0.00000012   -0.00000100
     atom   15 type  1   force =     0.00000088   -0.00000004    0.00000015
     atom   16 type  1   force =    -0.00000083   -0.00000006    0.00000035
     atom   17 type  2   force =     0.00000015    0.00000009   -0.00000002
     atom   18 type  2   force =    -0.00000024    0.00000020   -0.00000002
     atom   19 type  1   force =    -0.00000068    0.00000103   -0.00000001
     atom   20 type  1   force =     0.00000070   -0.00000022   -0.00000001
     atom   21 type  2   force =    -0.00000105   -0.00000017   -0.00000002
     atom   22 type  2   force =     0.00000101   -0.00000013   -0.00000002
     atom   23 type  1   force =    -0.00000069   -0.00000099   -0.00000001
     atom   24 type  1   force =     0.00000069    0.00000025   -0.00000001
     atom   25 type  1   force =     0.00000088   -0.00000004   -0.00000017
     atom   26 type  1   force =    -0.00000083   -0.00000006   -0.00000036
     atom   27 type  1   force =    -0.00000053   -0.00000003    0.00000023
     atom   28 type  1   force =     0.00000054    0.00000012    0.00000099
     atom   29 type  2   force =     0.00000040    0.00000048   -0.00000013
     atom   30 type  2   force =    -0.00000024    0.00000023    0.00000048
     atom   31 type  1   force =    -0.00000018   -0.00000022   -0.00000035
     atom   32 type  1   force =     0.00000013   -0.00000114   -0.00000027
     atom   33 type  2   force =     0.00000003   -0.00000024   -0.00000187
     atom   34 type  2   force =     0.00000001   -0.00000051   -0.00000141
     atom   35 type  1   force =    -0.00000032    0.00000013   -0.00000044
     atom   36 type  1   force =     0.00000034    0.00000114   -0.00000030
     atom   37 type  1   force =    -0.00000078   -0.00000006   -0.00000127
     atom   38 type  1   force =     0.00000065    0.00000046   -0.00000062
     atom   39 type  1   force =     0.00000046    0.00000015   -0.00000187
     atom   40 type  1   force =    -0.00000014   -0.00000104   -0.00000130
     atom   41 type  3   force =     0.00000006   -0.00000003    0.00000025
     atom   42 type  3   force =     0.00000006   -0.00000003   -0.00000025
     atom   43 type  3   force =     0.00000001   -0.00000013    0.00000028
     atom   44 type  3   force =     0.00000001   -0.00000013   -0.00000028
     atom   45 type  3   force =     0.00000004   -0.00000013    0.00000026
     atom   46 type  3   force =     0.00000004   -0.00000013   -0.00000026
     atom   47 type  3   force =    -0.00000006    0.00000004    0.00000026
     atom   48 type  3   force =    -0.00000006    0.00000004   -0.00000026

     Total force =     0.000407     Total SCF correction =     0.000007
     Energy error            =      3.6E-07 Ry
     Gradient error          =      9.3E-05 Ry/Bohr

     bfgs converged in  40 scf cycles and  39 bfgs steps
     (criteria: energy <  1.0E-04 Ry, force <  1.0E-04 Ry/Bohr)

     End of BFGS Geometry Optimization

     Final energy             =   -3437.7715770407 Ry

     File /storage/home/mgm6007/ixd4/Maria/Strain2_Files/RuO2-110-0-0234/RuO2-110-0-0234.bfgs deleted, as requested
Begin final coordinates

ATOMIC_POSITIONS (crystal)
O             0.0343176533        0.4369283242        0.2627470761
O             0.4699138841        0.4476334773        0.2715472396
O            -0.0034194855        0.0119627368        0.2985882644
O             0.4946631240        0.0015028156        0.3006391207
Ru            0.2475072838       -0.0071200328        0.3592832166
Ru            0.7445877309       -0.0075818899        0.3584716292
O             0.2438170427        0.3014441881        0.3636839631
O             0.7500528545        0.3032651127        0.3595604640
Ru           -0.0008250243        0.4915030452        0.3601025833
Ru            0.4983732292        0.4923875800        0.3509810064
O             0.2429453441        0.6846086385        0.3538348262
O             0.7506483389        0.6818926613        0.3514755746
O            -0.0059467990       -0.0110523719        0.4114155766
O             0.4970295270       -0.0086852214        0.4115773183
O            -0.0063776129        0.5076941554        0.4466842667
O             0.4942086084        0.5065901111        0.4422755475
Ru           -0.0051710792        0.0036515988        0.5000010000
Ru            0.4951320972        0.0039469608        0.5000010000
O             0.2447985912        0.1924140419        0.5000010000
O             0.7448339379        0.1927764252        0.5000010000
Ru            0.2491924927        0.5047738275        0.5000010000
Ru            0.7411467385        0.5047738313        0.5000010000
O             0.2458055099        0.8167742676        0.5000010000
O             0.7440510460        0.8163950064        0.5000010000
O            -0.0063776129        0.5076941554        0.5533167333
O             0.4942086084        0.5065901111        0.5577254525
O            -0.0059467990       -0.0110523719        0.5885854234
O             0.4970295270       -0.0086852214        0.5884236817
Ru            0.2475072838       -0.0071200328        0.6407177834
Ru            0.7445877309       -0.0075818899        0.6415293708
O             0.2438170427        0.3014441881        0.6363170369
O             0.7500528545        0.3032651127        0.6404405360
Ru           -0.0008250243        0.4915030452        0.6398984167
Ru            0.4983732292        0.4923875800        0.6490199936
O             0.2429453441        0.6846086385        0.6461661738
O             0.7506483389        0.6818926613        0.6485254254
O            -0.0034194855        0.0119627368        0.7014137356
O             0.4946631240        0.0015028156        0.6993628793
O             0.0343176533        0.4369283242        0.7372539239
O             0.4699138841        0.4476334773        0.7284537604
H             0.1864802711        0.4507734866        0.2563174516
H             0.1864802711        0.4507734866        0.7436825484
H             0.0099667552        0.2742048734        0.2630381154
H             0.0099667552        0.2742048734        0.7369618846
H             0.4931193213        0.1373628973        0.2759514774
H             0.4931193213        0.1373628973        0.7240485226
H            -0.0033217141        0.9011494329        0.2666763401
H            -0.0033217141        0.9011494329        0.7333236599
End final coordinates

     Writing all to output data dir /storage/home/mgm6007/ixd4/Maria/Strain2_Files/RuO2-110-0-0234/RuO2-110-0-0234.save/

     General routines

     Parallel routines

     Environ routines

   This run was terminated on:  19:29: 9  28Jul2023

   JOB DONE.