     Program PWSCF v.7.2 starts on 18Jul2023 at 16:10:56
        Git branch: heads/qe-7.2
        Last git commit: b4c5e8deeb7d1863e7553a87b45f8d22c21926a5
        Last git commit date: Mon Mar 27 16:12:09 2023 +0000
        Last git commit subject: Merge branch 'merge_fix_hubbard' into 'develop'

     Reading input from RuO2-110-0-0123.in

     Current dimensions of program PWSCF are:
     Max number of different atomic species (ntypx) = 10
     Max number of k-points (npk) =  40000
     Max angular momentum in pseudopotentials (lmaxx) =  4

     Reading input from environ.in:
     * Environ restarting
     * setting up water environment
     * using electronic solvent mode
     * setting boundary derivatives method to SCCS default

     File /storage/home/mgm6007/ixd4/Maria/Strain1_Files/RuO2-110-0-0123/RuO2-110-0-0123.update deleted, as requested

     File /storage/home/mgm6007/ixd4/Maria/Strain1_Files/RuO2-110-0-0123/RuO2-110-0-0123.bfgs deleted, as requested
     file O.pbe-n-kjpaw_psl.0.1.UPF: wavefunction(s)  2P renormalized
     Found identity + (  0.5000  0.0000  0.0000) symmetry
     This is a supercell, fractional translations are disabled
     Message from routine setup:
     using ibrav=0 with symmetry is DISCOURAGED, use correct ibrav instead

     R & G space division:  proc/nbgrp/npool/nimage =      20
     Subspace diagonalization in iterative solution of the eigenvalue problem:
     one sub-group per band group will be used

     Using Slab Decomposition

     bravais-lattice index     =            0
     lattice parameter (alat)  =      12.3893  a.u.
     unit-cell volume          =    5808.5831 (a.u.)^3
     number of atoms/cell      =           48
     number of atomic types    =            3
     number of electrons       =       368.00
     number of Kohn-Sham states=          221
     kinetic-energy cutoff     =      50.0000  Ry
     charge density cutoff     =     500.0000  Ry
     scf convergence threshold =      1.0E-09
     mixing beta               =       0.7000
     number of iterations used =            8  local-TF  mixing
     energy convergence thresh.=      1.0E-04
     force convergence thresh. =      1.0E-04
     Exchange-correlation= PBE
                           (   1   4   3   4   0   0   0)
     nstep                     =          200

                                  Environ Setup Summary

          O. Andreussi, I. Dabo and N. Marzari, J. Chem. Phys. 136, 064102 (2012)

     in publications or presentations arising from this work.

     Parameters

     compensation onset threshold      =               0.1000E+00
     static permittivity               =                    78.30
     surface tension in input (dyn/cm) =                    47.90
     surface tension in internal units =               0.6153E-04
     external pressure in input (GPa)  =                    -0.36
     external pressure in inter. units =              -0.2447E-04

     Solvent Boundary

     solvent mode                      =               electronic
     derivatives method                =                    chain
     numerical core for derivatives    =                      fft
     switching function adopted        =                     SCCS
     density limit for vacuum region   =               0.5000E-02
     density limit for bulk solvent    =               0.1000E-03

     Electrostatic Setup

     electrostatic problem to solve    =              generalized
     numerical solver adopted          =                       cg
     type of auxiliary density adopted =                     none
     numerical core for poisson        =                      fft
     type of pbc corrections           =                parabolic
     numerical core for corrections    =                      1da

     celldm(1)=  12.389316  celldm(2)=   0.000000  celldm(3)=   0.000000
     celldm(4)=   0.000000  celldm(5)=   0.000000  celldm(6)=   0.000000

     crystal axes: (cart. coord. in units of alat)
               a(1) = (   1.000000   0.000000   0.000000 )
               a(2) = (   0.000000   0.904766   0.000000 )
               a(3) = (   0.000000   0.000000   3.375918 )

     reciprocal axes: (cart. coord. in units 2 pi/alat)
               b(1) = (  1.000000  0.000000  0.000000 )
               b(2) = (  0.000000  1.105258  0.000000 )
               b(3) = (  0.000000  0.000000  0.296216 )

     PseudoPot. # 1 for O  read from file:
     /gpfs/group/ixd4/default/Simon/pseudopotentials/materialscloud/SSSP_1.3.0_PBE_efficiency/O.pbe-n-kjpaw_psl.0.1.UPF
     MD5 check sum: 0234752ac141de4415c5fc33072bef88
     Pseudo is Projector augmented-wave + core cor, Zval =  6.0
     Generated using "atomic" code by A. Dal Corso  v.5.0.99 svn rev. 10869
     Shape of augmentation charge: BESSEL
     Using radial grid of 1095 points,  4 beta functions with:
                l(1) =   0
                l(2) =   0
                l(3) =   1
                l(4) =   1
     Q(r) pseudized with 0 coefficients

     PseudoPot. # 2 for Ru read from file:
     /gpfs/group/ixd4/default/Simon/pseudopotentials/materialscloud/SSSP_1.3.0_PBE_efficiency/Ru_ONCV_PBE-1.0.oncvpsp.upf
     MD5 check sum: be037bb81c227cfb9b1461a9f099f4bd
     Pseudo is Norm-conserving, Zval = 16.0
     Generated using ONCVPSP code by D. R. Hamann
     Using radial grid of 1458 points,  6 beta functions with:
                l(1) =   0
                l(2) =   0
                l(3) =   1
                l(4) =   1
                l(5) =   2
                l(6) =   2

     PseudoPot. # 3 for H  read from file:
     /gpfs/group/ixd4/default/Simon/pseudopotentials/materialscloud/SSSP_1.3.0_PBE_efficiency/H.pbe-rrkjus_psl.1.0.0.UPF
     MD5 check sum: f52b6d4d1c606e5624b1dc7b2218f220
     Pseudo is Ultrasoft, Zval =  1.0
     Generated using "atomic" code by A. Dal Corso  v.5.1
     Using radial grid of  929 points,  2 beta functions with:
                l(1) =   0
                l(2) =   0
     Q(r) pseudized with 0 coefficients

     atomic species   valence    mass     pseudopotential
        O              6.00    15.99940     O ( 1.00)
        Ru            16.00   101.07000     Ru( 1.00)
        H              1.00     1.00794     H ( 1.00)

      2 Sym. Ops. (no inversion) found

   Cartesian axes

     site n.     atom                  positions (alat units)
         1           O   tau(   1) = (  -0.0051969   0.3986864   0.9044289  )
         2           O   tau(   2) = (   0.4947988   0.3986866   0.9044307  )
         3           O   tau(   3) = (  -0.0036039   0.0109969   1.0191428  )
         4           O   tau(   4) = (   0.4963959   0.0109976   1.0191428  )
         5           Ru  tau(   5) = (   0.2462965   0.0006144   1.2106191  )
         6           Ru  tau(   6) = (   0.7462967   0.0006147   1.2106188  )
         7           O   tau(   7) = (   0.2521299   0.2849512   1.2200133  )
         8           O   tau(   8) = (   0.7521296   0.2849513   1.2200123  )
         9           Ru  tau(   9) = (   0.0016267   0.4532135   1.2032808  )
        10           Ru  tau(  10) = (   0.5016268   0.4532136   1.2032788  )
        11           O   tau(  11) = (   0.2526278   0.6220166   1.1851202  )
        12           O   tau(  12) = (   0.7526276   0.6220168   1.1851202  )
        13           O   tau(  13) = (  -0.0031099  -0.0026152   1.3878664  )
        14           O   tau(  14) = (   0.4968903  -0.0026166   1.3878667  )
        15           O   tau(  15) = (   0.0053781   0.4643545   1.5026524  )
        16           O   tau(  16) = (   0.5053778   0.4643551   1.5026477  )
        17           Ru  tau(  17) = (  -0.0033331   0.0077619   1.6879622  )
        18           Ru  tau(  18) = (   0.4966669   0.0077619   1.6879622  )
        19           O   tau(  19) = (   0.2452694   0.1768708   1.6879622  )
        20           O   tau(  20) = (   0.7452692   0.1768709   1.6879622  )
        21           Ru  tau(  21) = (   0.2568248   0.4612100   1.6879622  )
        22           Ru  tau(  22) = (   0.7568227   0.4612100   1.6879622  )
        23           O   tau(  23) = (   0.2456811   0.7453744   1.6879622  )
        24           O   tau(  24) = (   0.7456803   0.7453742   1.6879622  )
        25           O   tau(  25) = (   0.0053781   0.4643545   1.8732685  )
        26           O   tau(  26) = (   0.5053778   0.4643551   1.8732732  )
        27           O   tau(  27) = (  -0.0031099  -0.0026152   1.9880545  )
        28           O   tau(  28) = (   0.4968903  -0.0026166   1.9880542  )
        29           Ru  tau(  29) = (   0.2462965   0.0006144   2.1653019  )
        30           Ru  tau(  30) = (   0.7462967   0.0006147   2.1653021  )
        31           O   tau(  31) = (   0.2521299   0.2849512   2.1559077  )
        32           O   tau(  32) = (   0.7521296   0.2849513   2.1559086  )
        33           Ru  tau(  33) = (   0.0016267   0.4532135   2.1726402  )
        34           Ru  tau(  34) = (   0.5016268   0.4532136   2.1726421  )
        35           O   tau(  35) = (   0.2526278   0.6220166   2.1908008  )
        36           O   tau(  36) = (   0.7526276   0.6220168   2.1908007  )
        37           O   tau(  37) = (  -0.0036039   0.0109969   2.3567815  )
        38           O   tau(  38) = (   0.4963959   0.0109976   2.3567815  )
        39           O   tau(  39) = (  -0.0051969   0.3986864   2.4714921  )
        40           O   tau(  40) = (   0.4947988   0.3986866   2.4714902  )
        41           H   tau(  41) = (   0.1284031   0.4257609   0.8435493  )
        42           H   tau(  42) = (   0.1284031   0.4257609   2.5323683  )
        43           H   tau(  43) = (   0.6284036   0.4257622   0.8435486  )
        44           H   tau(  44) = (   0.6284036   0.4257622   2.5323690  )
        45           H   tau(  45) = (  -0.0041340   0.1426240   0.9391009  )
        46           H   tau(  46) = (  -0.0041340   0.1426240   2.4368167  )
        47           H   tau(  47) = (   0.4958648   0.1426242   0.9391007  )
        48           H   tau(  48) = (   0.4958648   0.1426242   2.4368168  )

     number of k points=     2  Marzari-Vanderbilt smearing, width (Ry)=  0.0300
                       cart. coord. in units 2pi/alat
        k(    1) = (   0.2500000   0.2763144   0.0000000), wk =   1.0000000
        k(    2) = (  -0.2500000   0.2763144   0.0000000), wk =   1.0000000

     Check: negative core charge=   -0.000001

     Initial potential from superposition of free atoms

     starting charge     367.9933, renormalised to     368.0000

     add environment contribution to local potential
     Polarization accuracy = 9.6E-12, # of iterations =  22

     negative rho (up, down):  2.721E-05 0.000E+00
     Starting wfcs are  240 randomized atomic wfcs
     Checking if some PAW data can be deallocated...

     Self-consistent Calculation

     iteration #  1     ecut=    50.00 Ry     beta= 0.70
     Davidson diagonalization with overlap
     ethr =  1.00E-02,  avg # of iterations =  3.0

     total energy              =   -3435.54258003 Ry
     estimated scf accuracy    <       8.72614307 Ry
     electrostatic embedding   =      -0.00182464 Ry
[...]
     atom   27 type  1   force =     0.03233129    0.60409983  -38.67602463
     atom   28 type  1   force =     0.03231669    0.60409328  -38.67601800
     atom   29 type  2   force =     0.28540501    2.17127335 -171.16893163
     atom   30 type  2   force =     0.28536417    2.17127120 -171.16896608
     atom   31 type  1   force =    -0.04397444    0.24269023  -61.05731579
     atom   32 type  1   force =    -0.04402282    0.24269359  -61.05738845
     atom   33 type  2   force =    -0.11756299   -3.01424092 -171.88723273
     atom   34 type  2   force =    -0.11758422   -3.01424876 -171.88711805
     atom   35 type  1   force =    -0.03902391   -0.86954156  -69.10852352
     atom   36 type  1   force =    -0.03906365   -0.86954462  -69.10859324
     atom   37 type  1   force =    -0.04845551    2.46011562  -92.60704358
     atom   38 type  1   force =    -0.04846182    2.46011708  -92.60704822
     atom   39 type  1   force =     1.08170966   -0.36390973  -95.55941283
     atom   40 type  1   force =     1.08170010   -0.36390145  -95.55938960
     atom   41 type  3   force =    -2.72081882   -0.74109843   16.54328266
     atom   42 type  3   force =    -2.72081882   -0.74109843  -16.54328266
     atom   43 type  3   force =    -2.72081883   -0.74112026   16.54331078
     atom   44 type  3   force =    -2.72081883   -0.74112026  -16.54331078
     atom   45 type  3   force =     0.03298049   -1.42742181   16.94980441
     atom   46 type  3   force =     0.03298049   -1.42742181  -16.94980441
     atom   47 type  3   force =     0.03297486   -1.42741922   16.94980580
     atom   48 type  3   force =     0.03297486   -1.42741922  -16.94980580
     The core correction contribution to forces
     atom    1 type  1   force =    -0.01709438   -0.00281065   -0.00289012
     atom    2 type  1   force =    -0.01709428   -0.00281077   -0.00288993
     atom    3 type  1   force =    -0.00003087   -0.01288918   -0.00194839
     atom    4 type  1   force =    -0.00003088   -0.01288917   -0.00194839
     atom    5 type  2   force =     0.00000000    0.00000000    0.00000000
     atom    6 type  2   force =     0.00000000    0.00000000    0.00000000
     atom    7 type  1   force =     0.00042724    0.00071221    0.00112203
     atom    8 type  1   force =     0.00042722    0.00071220    0.00112199
     atom    9 type  2   force =     0.00000000    0.00000000    0.00000000
     atom   10 type  2   force =     0.00000000    0.00000000    0.00000000
     atom   11 type  1   force =     0.00036047   -0.00047223   -0.00164102
     atom   12 type  1   force =     0.00036046   -0.00047222   -0.00164104
     atom   13 type  1   force =    -0.00009680   -0.00050915   -0.00033332
     atom   14 type  1   force =    -0.00009679   -0.00050910   -0.00033331
     atom   15 type  1   force =     0.00038385    0.00058438   -0.00008621
     atom   16 type  1   force =     0.00038385    0.00058437   -0.00008617
     atom   17 type  2   force =     0.00000000    0.00000000    0.00000000
     atom   18 type  2   force =     0.00000000    0.00000000    0.00000000
     atom   19 type  1   force =    -0.00049730   -0.00057424   -0.00000206
     atom   20 type  1   force =    -0.00049729   -0.00057424   -0.00000206
     atom   21 type  2   force =     0.00000000    0.00000000    0.00000000
     atom   22 type  2   force =     0.00000000    0.00000000    0.00000000
     atom   23 type  1   force =    -0.00052175    0.00054264   -0.00000195
     atom   24 type  1   force =    -0.00052175    0.00054265   -0.00000195
     atom   25 type  1   force =     0.00038380    0.00058460    0.00008395
     atom   26 type  1   force =     0.00038380    0.00058458    0.00008391
     atom   27 type  1   force =    -0.00009680   -0.00050928    0.00033104
     atom   28 type  1   force =    -0.00009680   -0.00050923    0.00033103
     atom   29 type  2   force =     0.00000000    0.00000000    0.00000000
     atom   30 type  2   force =     0.00000000    0.00000000    0.00000000
     atom   31 type  1   force =     0.00042724    0.00071234   -0.00112398
     atom   32 type  1   force =     0.00042721    0.00071233   -0.00112394
     atom   33 type  2   force =     0.00000000    0.00000000    0.00000000
     atom   34 type  2   force =     0.00000000    0.00000000    0.00000000
     atom   35 type  1   force =     0.00036049   -0.00047233    0.00163891
     atom   36 type  1   force =     0.00036048   -0.00047233    0.00163893
     atom   37 type  1   force =    -0.00003083   -0.01289101    0.00194462
     atom   38 type  1   force =    -0.00003085   -0.01289100    0.00194462
     atom   39 type  1   force =    -0.01709515   -0.00281069    0.00288760
     atom   40 type  1   force =    -0.01709505   -0.00281081    0.00288741
     atom   41 type  3   force =     0.00000000    0.00000000    0.00000000
     atom   42 type  3   force =     0.00000000    0.00000000    0.00000000
     atom   43 type  3   force =     0.00000000    0.00000000    0.00000000
     atom   44 type  3   force =     0.00000000    0.00000000    0.00000000
     atom   45 type  3   force =     0.00000000    0.00000000    0.00000000
     atom   46 type  3   force =     0.00000000    0.00000000    0.00000000
     atom   47 type  3   force =     0.00000000    0.00000000    0.00000000
     atom   48 type  3   force =     0.00000000    0.00000000    0.00000000
     The Hubbard contrib.    to forces
     atom    1 type  1   force =     0.00000000    0.00000000    0.00000000
     atom    2 type  1   force =     0.00000000    0.00000000    0.00000000
     atom    3 type  1   force =     0.00000000    0.00000000    0.00000000
     atom    4 type  1   force =     0.00000000    0.00000000    0.00000000
     atom    5 type  2   force =     0.00000000    0.00000000    0.00000000
     atom    6 type  2   force =     0.00000000    0.00000000    0.00000000
     atom    7 type  1   force =     0.00000000    0.00000000    0.00000000
     atom    8 type  1   force =     0.00000000    0.00000000    0.00000000
     atom    9 type  2   force =     0.00000000    0.00000000    0.00000000
     atom   10 type  2   force =     0.00000000    0.00000000    0.00000000
     atom   11 type  1   force =     0.00000000    0.00000000    0.00000000
     atom   12 type  1   force =     0.00000000    0.00000000    0.00000000
     atom   13 type  1   force =     0.00000000    0.00000000    0.00000000
     atom   14 type  1   force =     0.00000000    0.00000000    0.00000000
     atom   15 type  1   force =     0.00000000    0.00000000    0.00000000
     atom   16 type  1   force =     0.00000000    0.00000000    0.00000000
     atom   17 type  2   force =     0.00000000    0.00000000    0.00000000
     atom   18 type  2   force =     0.00000000    0.00000000    0.00000000
     atom   19 type  1   force =     0.00000000    0.00000000    0.00000000
     atom   20 type  1   force =     0.00000000    0.00000000    0.00000000
     atom   21 type  2   force =     0.00000000    0.00000000    0.00000000
     atom   22 type  2   force =     0.00000000    0.00000000    0.00000000
     atom   23 type  1   force =     0.00000000    0.00000000    0.00000000
     atom   24 type  1   force =     0.00000000    0.00000000    0.00000000
     atom   25 type  1   force =     0.00000000    0.00000000    0.00000000
     atom   26 type  1   force =     0.00000000    0.00000000    0.00000000
     atom   27 type  1   force =     0.00000000    0.00000000    0.00000000
     atom   28 type  1   force =     0.00000000    0.00000000    0.00000000
     atom   29 type  2   force =     0.00000000    0.00000000    0.00000000
     atom   30 type  2   force =     0.00000000    0.00000000    0.00000000
     atom   31 type  1   force =     0.00000000    0.00000000    0.00000000
     atom   32 type  1   force =     0.00000000    0.00000000    0.00000000
     atom   33 type  2   force =     0.00000000    0.00000000    0.00000000
     atom   34 type  2   force =     0.00000000    0.00000000    0.00000000
     atom   35 type  1   force =     0.00000000    0.00000000    0.00000000
     atom   36 type  1   force =     0.00000000    0.00000000    0.00000000
     atom   37 type  1   force =     0.00000000    0.00000000    0.00000000
     atom   38 type  1   force =     0.00000000    0.00000000    0.00000000
     atom   39 type  1   force =     0.00000000    0.00000000    0.00000000
     atom   40 type  1   force =     0.00000000    0.00000000    0.00000000
     atom   41 type  3   force =     0.00000000    0.00000000    0.00000000
     atom   42 type  3   force =     0.00000000    0.00000000    0.00000000
     atom   43 type  3   force =     0.00000000    0.00000000    0.00000000
     atom   44 type  3   force =     0.00000000    0.00000000    0.00000000
     atom   45 type  3   force =     0.00000000    0.00000000    0.00000000
     atom   46 type  3   force =     0.00000000    0.00000000    0.00000000
     atom   47 type  3   force =     0.00000000    0.00000000    0.00000000
     atom   48 type  3   force =     0.00000000    0.00000000    0.00000000
     The SCF correction term to forces
     atom    1 type  1   force =    -0.00000008    0.00000180    0.00000130
     atom    2 type  1   force =     0.00000022    0.00000160    0.00000024
     atom    3 type  1   force =    -0.00000048   -0.00000116    0.00000106
     atom    4 type  1   force =     0.00000013   -0.00000120    0.00000082
     atom    5 type  2   force =    -0.00000078   -0.00000141    0.00000051
     atom    6 type  2   force =     0.00000125   -0.00000138    0.00000050
     atom    7 type  1   force =    -0.00000112    0.00000075    0.00000018
     atom    8 type  1   force =     0.00000107    0.00000048    0.00000017
     atom    9 type  2   force =    -0.00000071    0.00000166    0.00000001
     atom   10 type  2   force =     0.00000019    0.00000165   -0.00000019
     atom   11 type  1   force =    -0.00000103   -0.00000027   -0.00000027
     atom   12 type  1   force =     0.00000115   -0.00000002   -0.00000025
     atom   13 type  1   force =    -0.00000030   -0.00000018   -0.00000019
     atom   14 type  1   force =     0.00000034   -0.00000017   -0.00000039
     atom   15 type  1   force =    -0.00000029    0.00000004   -0.00000103
     atom   16 type  1   force =     0.00000026    0.00000007   -0.00000014
     atom   17 type  2   force =    -0.00000110   -0.00000074   -0.00000002
     atom   18 type  2   force =    -0.00000035   -0.00000073   -0.00000002
     atom   19 type  1   force =    -0.00000062   -0.00000002   -0.00000001
     atom   20 type  1   force =     0.00000057    0.00000017   -0.00000001
     atom   21 type  2   force =    -0.00000066   -0.00000045   -0.00000002
     atom   22 type  2   force =     0.00000175   -0.00000045   -0.00000002
     atom   23 type  1   force =    -0.00000071    0.00000002   -0.00000001
     atom   24 type  1   force =     0.00000048   -0.00000017   -0.00000001
     atom   25 type  1   force =    -0.00000029    0.00000004    0.00000101
     atom   26 type  1   force =     0.00000026    0.00000007    0.00000012
     atom   27 type  1   force =    -0.00000029   -0.00000018    0.00000018
     atom   28 type  1   force =     0.00000034   -0.00000017    0.00000038
     atom   29 type  2   force =    -0.00000077   -0.00000141   -0.00000052
     atom   30 type  2   force =     0.00000125   -0.00000138   -0.00000051
     atom   31 type  1   force =    -0.00000112    0.00000075   -0.00000018
     atom   32 type  1   force =     0.00000107    0.00000048   -0.00000017
     atom   33 type  2   force =    -0.00000071    0.00000167   -0.00000002
     atom   34 type  2   force =     0.00000019    0.00000166    0.00000018
     atom   35 type  1   force =    -0.00000103   -0.00000027    0.00000027
     atom   36 type  1   force =     0.00000115   -0.00000002    0.00000024
     atom   37 type  1   force =    -0.00000048   -0.00000116   -0.00000105
     atom   38 type  1   force =     0.00000013   -0.00000120   -0.00000081
     atom   39 type  1   force =    -0.00000008    0.00000180   -0.00000129
     atom   40 type  1   force =     0.00000022    0.00000160   -0.00000023
     atom   41 type  3   force =    -0.00000010    0.00000017    0.00000019
     atom   42 type  3   force =    -0.00000010    0.00000017   -0.00000019
     atom   43 type  3   force =     0.00000004    0.00000017    0.00000012
     atom   44 type  3   force =     0.00000004    0.00000017   -0.00000012
     atom   45 type  3   force =    -0.00000004    0.00000002    0.00000016
     atom   46 type  3   force =    -0.00000004    0.00000002   -0.00000016
     atom   47 type  3   force =     0.00000002   -0.00000004    0.00000010
     atom   48 type  3   force =     0.00000002   -0.00000004   -0.00000010

     Total force =     0.000391     Total SCF correction =     0.000009
     Energy error            =      3.7E-07 Ry
     Gradient error          =      7.2E-05 Ry/Bohr

     bfgs converged in  20 scf cycles and  19 bfgs steps
     (criteria: energy <  1.0E-04 Ry, force <  1.0E-04 Ry/Bohr)

     End of BFGS Geometry Optimization

     Final energy             =   -3437.6898528111 Ry

     File /storage/home/mgm6007/ixd4/Maria/Strain1_Files/RuO2-110-0-0123/RuO2-110-0-0123.bfgs deleted, as requested
Begin final coordinates

ATOMIC_POSITIONS (crystal)
O            -0.0040977552        0.4416687735        0.2678508078
O             0.4959017134        0.4416686341        0.2678508696
O            -0.0046480954        0.0128620485        0.3018466348
O             0.4953517572        0.0128620439        0.3018466482
Ru            0.2453657886        0.0009472321        0.3585866667
Ru            0.7453657612        0.0009471133        0.3585866349
O             0.2529064542        0.3151202511        0.3612945782
O             0.7529061374        0.3151201652        0.3612944693
Ru            0.0022739197        0.5011211447        0.3564209801
Ru            0.5022739556        0.5011211911        0.3564210699
O             0.2533407472        0.6877524405        0.3511384834
O             0.7533404186        0.6877523350        0.3511383784
O            -0.0038568062       -0.0031310638        0.4111237512
O             0.4961432371       -0.0031306844        0.4111238052
O             0.0054364548        0.5120233357        0.4451153410
O             0.5054366288        0.5120233131        0.4451154480
Ru           -0.0036635314        0.0073201942        0.5000010000
Ru            0.4963364739        0.0073200890        0.5000010000
O             0.2449694864        0.1941869125        0.5000010000
O             0.7449693399        0.1941868676        0.5000010000
Ru            0.2568218808        0.5083876279        0.5000010000
Ru            0.7568219979        0.5083875867        0.5000010000
O             0.2454694455        0.8225023081        0.5000010000
O             0.7454698083        0.8225023066        0.5000010000
O             0.0054364548        0.5120233357        0.5548856590
O             0.5054366288        0.5120233131        0.5548855520
O            -0.0038568062       -0.0031310638        0.5888772488
O             0.4961432371       -0.0031306844        0.5888771948
Ru            0.2453657886        0.0009472321        0.6414143333
Ru            0.7453657612        0.0009471133        0.6414143651
O             0.2529064542        0.3151202511        0.6387064218
O             0.7529061374        0.3151201652        0.6387065307
Ru            0.0022739197        0.5011211447        0.6435800199
Ru            0.5022739556        0.5011211911        0.6435799301
O             0.2533407472        0.6877524405        0.6488625166
O             0.7533404186        0.6877523350        0.6488626216
O            -0.0046480954        0.0128620485        0.6981553652
O             0.4953517572        0.0128620439        0.6981553518
O            -0.0040977552        0.4416687735        0.7321501922
O             0.4959017134        0.4416686341        0.7321501304
H             0.1297210430        0.4713867097        0.2499150812
H             0.1297210430        0.4713867097        0.7500849188
H             0.6297191753        0.4713874602        0.2499146852
H             0.6297191753        0.4713874602        0.7500853148
H            -0.0056039913        0.1582668102        0.2781044388
H            -0.0056039913        0.1582668102        0.7218955612
H             0.4943960055        0.1582668000        0.2781044330
H             0.4943960055        0.1582668000        0.7218955670
End final coordinates

     Writing all to output data dir /storage/home/mgm6007/ixd4/Maria/Strain1_Files/RuO2-110-0-0123/RuO2-110-0-0123.save/

     General routines

     Parallel routines

     Environ routines

   This run was terminated on:  20:55:16  19Jul2023

   JOB DONE.