     Program PWSCF v.7.2 starts on 18Jul2023 at 16:14: 3
        Git branch: heads/qe-7.2
        Last git commit: b4c5e8deeb7d1863e7553a87b45f8d22c21926a5
        Last git commit date: Mon Mar 27 16:12:09 2023 +0000
        Last git commit subject: Merge branch 'merge_fix_hubbard' into 'develop'

     Reading input from RuO2-110-0-2.in

     Current dimensions of program PWSCF are:
     Max number of different atomic species (ntypx) = 10
     Max number of k-points (npk) =  40000
     Max angular momentum in pseudopotentials (lmaxx) =  4

     Reading input from environ.in:
     * Environ restarting
     * setting up water environment
     * using electronic solvent mode
     * setting boundary derivatives method to SCCS default

     file O.pbe-n-kjpaw_psl.0.1.UPF: wavefunction(s)  2P renormalized
     Message from routine setup:
     using ibrav=0 with symmetry is DISCOURAGED, use correct ibrav instead

     R & G space division:  proc/nbgrp/npool/nimage =      20
     Subspace diagonalization in iterative solution of the eigenvalue problem:
     one sub-group per band group will be used

     Using Slab Decomposition

     bravais-lattice index     =            0
     lattice parameter (alat)  =      12.1041  a.u.
     unit-cell volume          =    5954.5483 (a.u.)^3
     number of atoms/cell      =           42
     number of atomic types    =            3
     number of electrons       =       362.00
     number of Kohn-Sham states=          217
     kinetic-energy cutoff     =      50.0000  Ry
     charge density cutoff     =     500.0000  Ry
     scf convergence threshold =      1.0E-09
     mixing beta               =       0.7000
     number of iterations used =            8  local-TF  mixing
     energy convergence thresh.=      1.0E-04
     force convergence thresh. =      1.0E-04
     Exchange-correlation= PBE
                           (   1   4   3   4   0   0   0)
     nstep                     =          200

                                  Environ Setup Summary

          O. Andreussi, I. Dabo and N. Marzari, J. Chem. Phys. 136, 064102 (2012)

     in publications or presentations arising from this work.

     Parameters

     compensation onset threshold      =               0.1000E+00
     static permittivity               =                    78.30
     surface tension in input (dyn/cm) =                    47.90
     surface tension in internal units =               0.6153E-04
     external pressure in input (GPa)  =                    -0.36
     external pressure in inter. units =              -0.2447E-04

     Solvent Boundary

     solvent mode                      =               electronic
     derivatives method                =                    chain
     numerical core for derivatives    =                      fft
     switching function adopted        =                     SCCS
     density limit for vacuum region   =               0.5000E-02
     density limit for bulk solvent    =               0.1000E-03

     Electrostatic Setup

     electrostatic problem to solve    =              generalized
     numerical solver adopted          =                       cg
     type of auxiliary density adopted =                     none
     numerical core for poisson        =                      fft
     type of pbc corrections           =                parabolic
     numerical core for corrections    =                      1da

     celldm(1)=  12.104053  celldm(2)=   0.000000  celldm(3)=   0.000000
     celldm(4)=   0.000000  celldm(5)=   0.000000  celldm(6)=   0.000000

     crystal axes: (cart. coord. in units of alat)
               a(1) = (   1.000000   0.000000   0.000000 )
               a(2) = (   0.000000   0.971735   0.000000 )
               a(3) = (   0.000000   0.000000   3.455479 )

     reciprocal axes: (cart. coord. in units 2 pi/alat)
               b(1) = (  1.000000  0.000000  0.000000 )
               b(2) = (  0.000000  1.029087  0.000000 )
               b(3) = (  0.000000  0.000000  0.289395 )

     PseudoPot. # 1 for O  read from file:
     /gpfs/group/ixd4/default/Simon/pseudopotentials/materialscloud/SSSP_1.3.0_PBE_efficiency/O.pbe-n-kjpaw_psl.0.1.UPF
     MD5 check sum: 0234752ac141de4415c5fc33072bef88
     Pseudo is Projector augmented-wave + core cor, Zval =  6.0
     Generated using "atomic" code by A. Dal Corso  v.5.0.99 svn rev. 10869
     Shape of augmentation charge: BESSEL
     Using radial grid of 1095 points,  4 beta functions with:
                l(1) =   0
                l(2) =   0
                l(3) =   1
                l(4) =   1
     Q(r) pseudized with 0 coefficients

     PseudoPot. # 2 for Ru read from file:
     /gpfs/group/ixd4/default/Simon/pseudopotentials/materialscloud/SSSP_1.3.0_PBE_efficiency/Ru_ONCV_PBE-1.0.oncvpsp.upf
     MD5 check sum: be037bb81c227cfb9b1461a9f099f4bd
     Pseudo is Norm-conserving, Zval = 16.0
     Generated using ONCVPSP code by D. R. Hamann
     Using radial grid of 1458 points,  6 beta functions with:
                l(1) =   0
                l(2) =   0
                l(3) =   1
                l(4) =   1
                l(5) =   2
                l(6) =   2

     PseudoPot. # 3 for H  read from file:
     /gpfs/group/ixd4/default/Simon/pseudopotentials/materialscloud/SSSP_1.3.0_PBE_efficiency/H.pbe-rrkjus_psl.1.0.0.UPF
     MD5 check sum: f52b6d4d1c606e5624b1dc7b2218f220
     Pseudo is Ultrasoft, Zval =  1.0
     Generated using "atomic" code by A. Dal Corso  v.5.1
     Using radial grid of  929 points,  2 beta functions with:
                l(1) =   0
                l(2) =   0
     Q(r) pseudized with 0 coefficients

     atomic species   valence    mass     pseudopotential
        O              6.00    15.99940     O ( 1.00)
        Ru            16.00   101.07000     Ru( 1.00)
        H              1.00     1.00794     H ( 1.00)

      4 Sym. Ops. (no inversion) found

   Cartesian axes

     site n.     atom                  positions (alat units)
         1           O   tau(   1) = (   0.0000000   0.4907467   0.9475715  )
         2           O   tau(   2) = (   0.5000000   0.4890555   0.9489203  )
         3           O   tau(   3) = (   0.0000000   0.0000105   1.0402813  )
         4           O   tau(   4) = (   0.5000000   0.0013698   1.0694565  )
         5           Ru  tau(   5) = (   0.2540876   0.0034449   1.2338245  )
         6           Ru  tau(   6) = (   0.7459124   0.0034449   1.2338245  )
         7           O   tau(   7) = (   0.2499453   0.3016646   1.2384540  )
         8           O   tau(   8) = (   0.7500547   0.3016646   1.2384540  )
         9           Ru  tau(   9) = (   0.0000000   0.4894418   1.2145274  )
        10           Ru  tau(  10) = (   0.5000000   0.4893214   1.2152439  )
        11           O   tau(  11) = (   0.2507653   0.6762594   1.2399550  )
        12           O   tau(  12) = (   0.7492347   0.6762594   1.2399550  )
        13           O   tau(  13) = (   0.0000000   0.0026172   1.4266346  )
        14           O   tau(  14) = (   0.5000000   0.0026681   1.4243978  )
        15           O   tau(  15) = (   0.0000000   0.4885821   1.5283816  )
        16           O   tau(  16) = (   0.5000000   0.4881135   1.5423424  )
        17           Ru  tau(  17) = (   0.0000000   0.0020392   1.7277432  )
        18           Ru  tau(  18) = (   0.5000000   0.0030902   1.7277432  )
        19           O   tau(  19) = (   0.2488347   0.1909715   1.7277432  )
        20           O   tau(  20) = (   0.7511653   0.1909715   1.7277432  )
        21           Ru  tau(  21) = (   0.2470337   0.4881978   1.7277432  )
        22           Ru  tau(  22) = (   0.7529663   0.4881978   1.7277432  )
        23           O   tau(  23) = (   0.2489338   0.7857854   1.7277432  )
        24           O   tau(  24) = (   0.7510662   0.7857854   1.7277432  )
        25           O   tau(  25) = (   0.0000000   0.4885821   1.9271013  )
        26           O   tau(  26) = (   0.5000000   0.4881135   1.9131405  )
        27           O   tau(  27) = (   0.0000000   0.0026172   2.0288484  )
        28           O   tau(  28) = (   0.5000000   0.0026681   2.0310851  )
        29           Ru  tau(  29) = (   0.2540876   0.0034449   2.2216585  )
        30           Ru  tau(  30) = (   0.7459124   0.0034449   2.2216585  )
        31           O   tau(  31) = (   0.2499453   0.3016646   2.2170290  )
        32           O   tau(  32) = (   0.7500547   0.3016646   2.2170290  )
        33           Ru  tau(  33) = (   0.0000000   0.4894418   2.2409555  )
        34           Ru  tau(  34) = (   0.5000000   0.4893214   2.2402390  )
        35           O   tau(  35) = (   0.2507653   0.6762594   2.2155280  )
        36           O   tau(  36) = (   0.7492347   0.6762594   2.2155280  )
        37           O   tau(  37) = (   0.0000000   0.0000105   2.4152051  )
        38           O   tau(  38) = (   0.5000000   0.0013698   2.3860299  )
        39           O   tau(  39) = (   0.0000000   0.4907467   2.5079115  )
        40           O   tau(  40) = (   0.5000000   0.4890555   2.5065627  )
        41           H   tau(  41) = (   0.0000000   0.0550850   0.8988672  )
        42           H   tau(  42) = (   0.0000000   0.0550850   2.5566123  )

     number of k points=     1  Marzari-Vanderbilt smearing, width (Ry)=  0.0300
                       cart. coord. in units 2pi/alat
        k(    1) = (   0.2500000   0.2572717   0.0000000), wk =   2.0000000

     Check: negative core charge=   -0.000001

     Initial potential from superposition of free atoms

     starting charge     361.9933, renormalised to     362.0000

     add environment contribution to local potential
     Polarization accuracy = 9.0E-12, # of iterations =  24

     negative rho (up, down):  4.064E-05 0.000E+00
     Starting wfcs are  234 randomized atomic wfcs
     Checking if some PAW data can be deallocated...

     Self-consistent Calculation

     iteration #  1     ecut=    50.00 Ry     beta= 0.70
     Davidson diagonalization with overlap
     ethr =  1.00E-02,  avg # of iterations =  2.0

     total energy              =   -3427.59140092 Ry
     estimated scf accuracy    <      10.56785725 Ry
     electrostatic embedding   =      -0.00168727 Ry
     cavitation energy         =       0.02016056 Ry
     PV energy                 =      -0.08323315 Ry
     correction to one-el term =     210.32862726 Ry

[...]

     negative rho (up, down):  6.695E-04 0.000E+00

[...]

     the potential shift due to the Gaussian-smeared nuclei is    -1.2993 ev

     End of self-consistent calculation

          k = 0.2500 0.2573 0.0000 ( 35510 PWs)   bands (ev):

   -78.8876 -78.8753 -78.8197 -78.8074 -78.2106 -78.2051 -78.1989 -78.1934
   -77.8930 -77.8881 -77.8159 -77.7374 -49.4300 -49.4177 -49.3776 -49.3654
   -48.7848 -48.7725 -48.6713 -48.6590 -48.4866 -48.4744 -48.4140 -48.4018
   -48.3727 -48.3683 -48.3609 -48.3564 -48.2695 -48.2578 -48.1684 -48.1568
   -48.1440 -48.1379 -48.1181 -48.0595 -48.0462 -48.0342 -48.0230 -48.0051
   -47.8417 -47.7532 -47.7484 -47.7375 -47.7221 -47.6321 -47.6252 -47.5496
   -24.3271 -24.2080 -23.9596 -23.8905 -23.8353 -23.7077 -23.6009 -23.5278
[...]
     atom   41 type  3   force =     0.00000000    0.49890519  -18.02519975
     atom   42 type  3   force =     0.00000000    0.49898328   18.02555180
     The local contribution  to forces
     atom    1 type  1   force =    -0.00000000   -0.04954826   98.49896602
     atom    2 type  1   force =    -0.00000000    0.01726349   98.69622516
     atom    3 type  1   force =    -0.00000000    0.18541468   90.36336804
     atom    4 type  1   force =     0.00000000    0.00762812   92.53302919
     atom    5 type  2   force =     3.05682059   -0.07836746  169.65392647
     atom    6 type  2   force =    -3.05682059   -0.07836746  169.65392647
     atom    7 type  1   force =     0.27838547    1.30245290   61.12313130
     atom    8 type  1   force =    -0.27838547    1.30245290   61.12313130
     atom    9 type  2   force =     0.00000000    0.03030404  170.28055836
     atom   10 type  2   force =    -0.00000000    0.08208039  169.69291751
     atom   11 type  1   force =     0.29904689   -1.29227726   60.92349167
     atom   12 type  1   force =    -0.29904689   -1.29227726   60.92349167
     atom   13 type  1   force =     0.00000000   -0.01413694   38.06392508
     atom   14 type  1   force =     0.00000000   -0.02046090   36.53583982
     atom   15 type  1   force =    -0.00000000    0.01685103   26.86659533
     atom   16 type  1   force =     0.00000000    0.01950887   26.74604057
     atom   17 type  2   force =    -0.00000000    0.01708659   -0.00583302
     atom   18 type  2   force =     0.00000000    0.01094422   -0.00582418
     atom   19 type  1   force =     0.03652421   -1.74346177   -0.00243370
     atom   20 type  1   force =    -0.03652421   -1.74346177   -0.00243370
     atom   21 type  2   force =     0.58698683   -0.00058146   -0.00599993
     atom   22 type  2   force =    -0.58698683   -0.00058146   -0.00599993
     atom   23 type  1   force =     0.00561063    1.74281752   -0.00243316
     atom   24 type  1   force =    -0.00561063    1.74281752   -0.00243316
     atom   25 type  1   force =     0.00000000    0.01685176  -26.86836096
     atom   26 type  1   force =    -0.00000000    0.01950989  -26.74784865
     atom   27 type  1   force =     0.00000000   -0.01413628  -38.06567291
     atom   28 type  1   force =     0.00000000   -0.02046148  -36.53757656
     atom   29 type  2   force =     3.05682807   -0.07836575 -169.65996515
     atom   30 type  2   force =    -3.05682807   -0.07836575 -169.65996515
     atom   31 type  1   force =     0.27838755    1.30248511  -61.12555181
     atom   32 type  1   force =    -0.27838755    1.30248511  -61.12555181
     atom   33 type  2   force =    -0.00000000    0.03030558 -170.28627791
     atom   34 type  2   force =     0.00000000    0.08207948 -169.69868297
     atom   35 type  1   force =     0.29904922   -1.29230922  -60.92591167
     atom   36 type  1   force =    -0.29904922   -1.29230922  -60.92591167
     atom   37 type  1   force =    -0.00000000    0.18544790  -90.36704441
     atom   38 type  1   force =    -0.00000000    0.00762356  -92.53689220
     atom   39 type  1   force =     0.00000000   -0.04954598  -98.50033888
     atom   40 type  1   force =    -0.00000000    0.01726288  -98.69759878
     atom   41 type  3   force =     0.00000000   -0.48956391   17.98174652
     atom   42 type  3   force =     0.00000000   -0.48956391  -17.98174652
     The core correction contribution to forces
     atom    1 type  1   force =    -0.00000000    0.00010559   -0.01099724
     atom    2 type  1   force =     0.00000000   -0.00000287   -0.01131067
     atom    3 type  1   force =     0.00000000   -0.00353576    0.00801732
     atom    4 type  1   force =     0.00000000   -0.00012134   -0.01087471
     atom    5 type  2   force =     0.00000000    0.00000000    0.00000000
     atom    6 type  2   force =     0.00000000    0.00000000    0.00000000
     atom    7 type  1   force =    -0.00014993   -0.00084061    0.00146559
     atom    8 type  1   force =     0.00014993   -0.00084061    0.00146559
     atom    9 type  2   force =     0.00000000    0.00000000    0.00000000
     atom   10 type  2   force =     0.00000000    0.00000000    0.00000000
     atom   11 type  1   force =    -0.00018730    0.00090182    0.00153059
     atom   12 type  1   force =     0.00018730    0.00090182    0.00153059
     atom   13 type  1   force =    -0.00000000    0.00000402   -0.00062551
     atom   14 type  1   force =    -0.00000000   -0.00014375    0.00071499
     atom   15 type  1   force =     0.00000000   -0.00000413   -0.00299018
     atom   16 type  1   force =     0.00000000   -0.00000260   -0.00268755
     atom   17 type  2   force =     0.00000000    0.00000000    0.00000000
     atom   18 type  2   force =     0.00000000    0.00000000    0.00000000
     atom   19 type  1   force =     0.00008906    0.00021304   -0.00000195
     atom   20 type  1   force =    -0.00008906    0.00021304   -0.00000195
     atom   21 type  2   force =     0.00000000    0.00000000    0.00000000
     atom   22 type  2   force =     0.00000000    0.00000000    0.00000000
     atom   23 type  1   force =     0.00011313   -0.00022720   -0.00000195
     atom   24 type  1   force =    -0.00011313   -0.00022720   -0.00000195
     atom   25 type  1   force =    -0.00000000   -0.00000413    0.00298817
     atom   26 type  1   force =     0.00000000   -0.00000259    0.00268537
     atom   27 type  1   force =    -0.00000000    0.00000403    0.00062338
     atom   28 type  1   force =    -0.00000000   -0.00014377   -0.00071728
     atom   29 type  2   force =     0.00000000    0.00000000    0.00000000
     atom   30 type  2   force =     0.00000000    0.00000000    0.00000000
     atom   31 type  1   force =    -0.00014989   -0.00084057   -0.00146695
     atom   32 type  1   force =     0.00014989   -0.00084057   -0.00146695
     atom   33 type  2   force =     0.00000000    0.00000000    0.00000000
     atom   34 type  2   force =     0.00000000    0.00000000    0.00000000
     atom   35 type  1   force =    -0.00018725    0.00090179   -0.00153195
     atom   36 type  1   force =     0.00018725    0.00090179   -0.00153195
     atom   37 type  1   force =     0.00000000   -0.00353626   -0.00802276
     atom   38 type  1   force =    -0.00000000   -0.00012142    0.01087059
     atom   39 type  1   force =    -0.00000000    0.00010560    0.01099558
     atom   40 type  1   force =    -0.00000000   -0.00000288    0.01130878
     atom   41 type  3   force =     0.00000000    0.00000000    0.00000000
     atom   42 type  3   force =     0.00000000    0.00000000    0.00000000
     The Hubbard contrib.    to forces
     atom    1 type  1   force =     0.00000000    0.00000000    0.00000000
     atom    2 type  1   force =     0.00000000    0.00000000    0.00000000
     atom    3 type  1   force =     0.00000000    0.00000000    0.00000000
     atom    4 type  1   force =     0.00000000    0.00000000    0.00000000
     atom    5 type  2   force =     0.00000000    0.00000000    0.00000000
     atom    6 type  2   force =     0.00000000    0.00000000    0.00000000
     atom    7 type  1   force =     0.00000000    0.00000000    0.00000000
     atom    8 type  1   force =     0.00000000    0.00000000    0.00000000
     atom    9 type  2   force =     0.00000000    0.00000000    0.00000000
     atom   10 type  2   force =     0.00000000    0.00000000    0.00000000
     atom   11 type  1   force =     0.00000000    0.00000000    0.00000000
     atom   12 type  1   force =     0.00000000    0.00000000    0.00000000
     atom   13 type  1   force =     0.00000000    0.00000000    0.00000000
     atom   14 type  1   force =     0.00000000    0.00000000    0.00000000
     atom   15 type  1   force =     0.00000000    0.00000000    0.00000000
     atom   16 type  1   force =     0.00000000    0.00000000    0.00000000
     atom   17 type  2   force =     0.00000000    0.00000000    0.00000000
     atom   18 type  2   force =     0.00000000    0.00000000    0.00000000
     atom   19 type  1   force =     0.00000000    0.00000000    0.00000000
     atom   20 type  1   force =     0.00000000    0.00000000    0.00000000
     atom   21 type  2   force =     0.00000000    0.00000000    0.00000000
     atom   22 type  2   force =     0.00000000    0.00000000    0.00000000
     atom   23 type  1   force =     0.00000000    0.00000000    0.00000000
     atom   24 type  1   force =     0.00000000    0.00000000    0.00000000
     atom   25 type  1   force =     0.00000000    0.00000000    0.00000000
     atom   26 type  1   force =     0.00000000    0.00000000    0.00000000
     atom   27 type  1   force =     0.00000000    0.00000000    0.00000000
     atom   28 type  1   force =     0.00000000    0.00000000    0.00000000
     atom   29 type  2   force =     0.00000000    0.00000000    0.00000000
     atom   30 type  2   force =     0.00000000    0.00000000    0.00000000
     atom   31 type  1   force =     0.00000000    0.00000000    0.00000000
     atom   32 type  1   force =     0.00000000    0.00000000    0.00000000
     atom   33 type  2   force =     0.00000000    0.00000000    0.00000000
     atom   34 type  2   force =     0.00000000    0.00000000    0.00000000
     atom   35 type  1   force =     0.00000000    0.00000000    0.00000000
     atom   36 type  1   force =     0.00000000    0.00000000    0.00000000
     atom   37 type  1   force =     0.00000000    0.00000000    0.00000000
     atom   38 type  1   force =     0.00000000    0.00000000    0.00000000
     atom   39 type  1   force =     0.00000000    0.00000000    0.00000000
     atom   40 type  1   force =     0.00000000    0.00000000    0.00000000
     atom   41 type  3   force =     0.00000000    0.00000000    0.00000000
     atom   42 type  3   force =     0.00000000    0.00000000    0.00000000
     The SCF correction term to forces
     atom    1 type  1   force =     0.00000000    0.00000035   -0.00000056
     atom    2 type  1   force =    -0.00000000   -0.00000103   -0.00000072
     atom    3 type  1   force =     0.00000000    0.00000037   -0.00000046
     atom    4 type  1   force =     0.00000000    0.00000090   -0.00000044
     atom    5 type  2   force =     0.00000016    0.00000137   -0.00000080
     atom    6 type  2   force =    -0.00000016    0.00000137   -0.00000080
     atom    7 type  1   force =    -0.00000002    0.00000006   -0.00000044
     atom    8 type  1   force =     0.00000002    0.00000006   -0.00000044
     atom    9 type  2   force =     0.00000000   -0.00000096   -0.00000108
     atom   10 type  2   force =    -0.00000000   -0.00000165   -0.00000056
     atom   11 type  1   force =    -0.00000015   -0.00000039   -0.00000003
     atom   12 type  1   force =     0.00000015   -0.00000039   -0.00000003
     atom   13 type  1   force =    -0.00000000    0.00000026   -0.00000024
     atom   14 type  1   force =     0.00000000    0.00000039   -0.00000102
     atom   15 type  1   force =     0.00000000   -0.00000043    0.00000025
     atom   16 type  1   force =    -0.00000000   -0.00000056    0.00000031
     atom   17 type  2   force =     0.00000000   -0.00000012   -0.00000002
     atom   18 type  2   force =    -0.00000000    0.00000007   -0.00000001
     atom   19 type  1   force =    -0.00000063    0.00000106   -0.00000001
     atom   20 type  1   force =     0.00000063    0.00000106   -0.00000001
     atom   21 type  2   force =    -0.00000039   -0.00000062   -0.00000001
     atom   22 type  2   force =     0.00000039   -0.00000062   -0.00000001
     atom   23 type  1   force =    -0.00000076   -0.00000101   -0.00000001
     atom   24 type  1   force =     0.00000076   -0.00000101   -0.00000001
     atom   25 type  1   force =     0.00000000   -0.00000043   -0.00000026
     atom   26 type  1   force =    -0.00000000   -0.00000056   -0.00000032
     atom   27 type  1   force =    -0.00000000    0.00000026    0.00000023
     atom   28 type  1   force =    -0.00000000    0.00000039    0.00000102
     atom   29 type  2   force =     0.00000016    0.00000137    0.00000079
     atom   30 type  2   force =    -0.00000016    0.00000137    0.00000079
     atom   31 type  1   force =    -0.00000002    0.00000007    0.00000044
     atom   32 type  1   force =     0.00000002    0.00000007    0.00000044
     atom   33 type  2   force =     0.00000000   -0.00000096    0.00000108
     atom   34 type  2   force =     0.00000000   -0.00000165    0.00000055
     atom   35 type  1   force =    -0.00000015   -0.00000039    0.00000003
     atom   36 type  1   force =     0.00000015   -0.00000039    0.00000003
     atom   37 type  1   force =     0.00000000    0.00000037    0.00000046
     atom   38 type  1   force =     0.00000000    0.00000090    0.00000044
     atom   39 type  1   force =     0.00000000    0.00000035    0.00000056
     atom   40 type  1   force =     0.00000000   -0.00000103    0.00000073
     atom   41 type  3   force =    -0.00000000    0.00000004   -0.00000009
     atom   42 type  3   force =    -0.00000000    0.00000004    0.00000009

     Total force =     0.000347     Total SCF correction =     0.000006
     Energy error            =      7.3E-07 Ry
     Gradient error          =      7.8E-05 Ry/Bohr

     bfgs converged in  40 scf cycles and  39 bfgs steps
     (criteria: energy <  1.0E-04 Ry, force <  1.0E-04 Ry/Bohr)

     End of BFGS Geometry Optimization

     Final energy             =   -3430.2720877936 Ry

     File /storage/home/mgm6007/ixd4/Maria/Strain0_Files/RuO2-110-0-2/RuO2-110-0-2.bfgs deleted, as requested
Begin final coordinates

ATOMIC_POSITIONS (crystal)
O             0.0000000000        0.5058889649        0.2737719206
O             0.5000000000        0.5044118829        0.2738265624
O             0.0000000000        0.0027649838        0.3017239615
O             0.5000000000        0.0035225900        0.3081091865
Ru            0.2551708812        0.0045689504        0.3568731685
Ru            0.7448291188        0.0045689504        0.3568731685
O             0.2499646955        0.3137170304        0.3586505703
O             0.7500353045        0.3137170304        0.3586505703
Ru            0.0000000000        0.5047219744        0.3512977643
Ru            0.5000000000        0.5045372157        0.3511855871
O             0.2505270286        0.6952109073        0.3589438923
O             0.7494729714        0.6952109073        0.3589438923
O             0.0000000000        0.0041973088        0.4126203462
O             0.5000000000        0.0042913352        0.4117033724
O             0.0000000000        0.5041410316        0.4429566730
O             0.5000000000        0.5038160963        0.4459865000
Ru            0.0000000000        0.0038431581        0.5000010000
Ru            0.5000000000        0.0042832563        0.5000010000
O             0.2495903856        0.1940314558        0.5000010000
O             0.7504096144        0.1940314558        0.5000010000
Ru            0.2479975581        0.5039743702        0.5000010000
Ru            0.7520024419        0.5039743702        0.5000010000
O             0.2498372372        0.8139977178        0.5000010000
O             0.7501627628        0.8139977178        0.5000010000
O             0.0000000000        0.5041410316        0.5570443270
O             0.5000000000        0.5038160963        0.5540145000
O             0.0000000000        0.0041973088        0.5873806538
O             0.5000000000        0.0042913352        0.5882976276
Ru            0.2551708812        0.0045689504        0.6431278315
Ru            0.7448291188        0.0045689504        0.6431278315
O             0.2499646955        0.3137170304        0.6413504297
O             0.7500353045        0.3137170304        0.6413504297
Ru            0.0000000000        0.5047219744        0.6487032357
Ru            0.5000000000        0.5045372157        0.6488154129
O             0.2505270286        0.6952109073        0.6410571077
O             0.7494729714        0.6952109073        0.6410571077
O             0.0000000000        0.0027649838        0.6982780385
O             0.5000000000        0.0035225900        0.6918928135
O             0.0000000000        0.5058889649        0.7262290794
O             0.5000000000        0.5044118829        0.7261744376
H             0.0000000000        0.0288630894        0.2581092748
H             0.0000000000        0.0288630894        0.7418907252
End final coordinates

     Writing all to output data dir /storage/home/mgm6007/ixd4/Maria/Strain0_Files/RuO2-110-0-2/RuO2-110-0-2.save/

     General routines

     Parallel routines

     Environ routines

   This run was terminated on:  14:53:45  20Jul2023

   JOB DONE.