     Program PWSCF v.7.2 starts on 14Jul2023 at 10:28:19
        Git branch: heads/qe-7.2
        Last git commit: b4c5e8deeb7d1863e7553a87b45f8d22c21926a5
        Last git commit date: Mon Mar 27 16:12:09 2023 +0000
        Last git commit subject: Merge branch 'merge_fix_hubbard' into 'develop'

     Reading input from RuO2-110-0-024.in

     Current dimensions of program PWSCF are:
     Max number of different atomic species (ntypx) = 10
     Max number of k-points (npk) =  40000
     Max angular momentum in pseudopotentials (lmaxx) =  4

     Reading input from environ.in:
     * Environ restarting
     * setting up water environment
     * using electronic solvent mode
     * setting boundary derivatives method to SCCS default

     file O.pbe-n-kjpaw_psl.0.1.UPF: wavefunction(s)  2P renormalized
     Message from routine setup:
     using ibrav=0 with symmetry is DISCOURAGED, use correct ibrav instead

     R & G space division:  proc/nbgrp/npool/nimage =      20
     Subspace diagonalization in iterative solution of the eigenvalue problem:
     one sub-group per band group will be used

     Using Slab Decomposition

     bravais-lattice index     =            0
     lattice parameter (alat)  =      12.3893  a.u.
     unit-cell volume          =    5808.5831 (a.u.)^3
     number of atoms/cell      =           46
     number of atomic types    =            3
     number of electrons       =       366.00
     number of Kohn-Sham states=          220
     kinetic-energy cutoff     =      50.0000  Ry
     charge density cutoff     =     500.0000  Ry
     scf convergence threshold =      1.0E-10
     mixing beta               =       0.7000
     number of iterations used =            8  local-TF  mixing
     energy convergence thresh.=      1.0E-04
     force convergence thresh. =      1.0E-04
     Exchange-correlation= PBE
                           (   1   4   3   4   0   0   0)
     nstep                     =          200

                                  Environ Setup Summary

          O. Andreussi, I. Dabo and N. Marzari, J. Chem. Phys. 136, 064102 (2012)

     in publications or presentations arising from this work.

     Parameters

     compensation onset threshold      =               0.1000E+00
     static permittivity               =                    78.30
     surface tension in input (dyn/cm) =                    47.90
     surface tension in internal units =               0.6153E-04
     external pressure in input (GPa)  =                    -0.36
     external pressure in inter. units =              -0.2447E-04

     Solvent Boundary

     solvent mode                      =               electronic
     derivatives method                =                    chain
     numerical core for derivatives    =                      fft
     switching function adopted        =                     SCCS
     density limit for vacuum region   =               0.5000E-02
     density limit for bulk solvent    =               0.1000E-03

     Electrostatic Setup

     electrostatic problem to solve    =              generalized
     numerical solver adopted          =                       cg
     type of auxiliary density adopted =                     none
     numerical core for poisson        =                      fft
     type of pbc corrections           =                parabolic
     numerical core for corrections    =                      1da

     celldm(1)=  12.389316  celldm(2)=   0.000000  celldm(3)=   0.000000
     celldm(4)=   0.000000  celldm(5)=   0.000000  celldm(6)=   0.000000

     crystal axes: (cart. coord. in units of alat)
               a(1) = (   1.000000   0.000000   0.000000 )
               a(2) = (   0.000000   0.904766   0.000000 )
               a(3) = (   0.000000   0.000000   3.375918 )

     reciprocal axes: (cart. coord. in units 2 pi/alat)
               b(1) = (  1.000000  0.000000  0.000000 )
               b(2) = (  0.000000  1.105258  0.000000 )
               b(3) = (  0.000000  0.000000  0.296216 )

     PseudoPot. # 1 for O  read from file:
     /gpfs/group/ixd4/default/Simon/pseudopotentials/materialscloud/SSSP_1.3.0_PBE_efficiency/O.pbe-n-kjpaw_psl.0.1.UPF
     MD5 check sum: 0234752ac141de4415c5fc33072bef88
     Pseudo is Projector augmented-wave + core cor, Zval =  6.0
     Generated using "atomic" code by A. Dal Corso  v.5.0.99 svn rev. 10869
     Shape of augmentation charge: BESSEL
     Using radial grid of 1095 points,  4 beta functions with:
                l(1) =   0
                l(2) =   0
                l(3) =   1
                l(4) =   1
     Q(r) pseudized with 0 coefficients

     PseudoPot. # 2 for Ru read from file:
     /gpfs/group/ixd4/default/Simon/pseudopotentials/materialscloud/SSSP_1.3.0_PBE_efficiency/Ru_ONCV_PBE-1.0.oncvpsp.upf
     MD5 check sum: be037bb81c227cfb9b1461a9f099f4bd
     Pseudo is Norm-conserving, Zval = 16.0
     Generated using ONCVPSP code by D. R. Hamann
     Using radial grid of 1458 points,  6 beta functions with:
                l(1) =   0
                l(2) =   0
                l(3) =   1
                l(4) =   1
                l(5) =   2
                l(6) =   2

     PseudoPot. # 3 for H  read from file:
     /gpfs/group/ixd4/default/Simon/pseudopotentials/materialscloud/SSSP_1.3.0_PBE_efficiency/H.pbe-rrkjus_psl.1.0.0.UPF
     MD5 check sum: f52b6d4d1c606e5624b1dc7b2218f220
     Pseudo is Ultrasoft, Zval =  1.0
     Generated using "atomic" code by A. Dal Corso  v.5.1
     Using radial grid of  929 points,  2 beta functions with:
                l(1) =   0
                l(2) =   0
     Q(r) pseudized with 0 coefficients

     atomic species   valence    mass     pseudopotential
        O              6.00    15.99940     O ( 1.00)
        Ru            16.00   101.07000     Ru( 1.00)
        H              1.00     1.00794     H ( 1.00)

      4 Sym. Ops. (no inversion) found

   Cartesian axes

     site n.     atom                  positions (alat units)
         1           O   tau(   1) = (   0.0000000   0.4523832   0.8804697  )
         2           O   tau(   2) = (   0.5000000   0.4523832   0.8804697  )
         3           O   tau(   3) = (   0.0000000   0.0000000   0.9930802  )
         4           O   tau(   4) = (   0.5000000   0.0000000   0.9930802  )
         5           Ru  tau(   5) = (   0.2500000   0.0000000   1.1871684  )
         6           Ru  tau(   6) = (   0.7500000   0.0000000   1.1871684  )
         7           O   tau(   7) = (   0.2500000   0.2770530   1.1871684  )
         8           O   tau(   8) = (   0.7500000   0.2770530   1.1871684  )
         9           Ru  tau(   9) = (   0.0000000   0.4523832   1.1871684  )
        10           Ru  tau(  10) = (   0.5000000   0.4523832   1.1871684  )
        11           O   tau(  11) = (   0.2500000   0.6277133   1.1871684  )
        12           O   tau(  12) = (   0.7500000   0.6277133   1.1871684  )
        13           O   tau(  13) = (   0.0000000   0.0000000   1.3812600  )
        14           O   tau(  14) = (   0.5000000   0.0000000   1.3812600  )
        15           O   tau(  15) = (   0.0000000   0.4523832   1.4938705  )
        16           O   tau(  16) = (   0.5000000   0.4523832   1.4938705  )
        17           Ru  tau(  17) = (   0.0000000   0.0000000   1.6879622  )
        18           Ru  tau(  18) = (   0.5000000   0.0000000   1.6879622  )
        19           O   tau(  19) = (   0.2500000   0.1753301   1.6879622  )
        20           O   tau(  20) = (   0.7500000   0.1753301   1.6879622  )
        21           Ru  tau(  21) = (   0.2500000   0.4523832   1.6879622  )
        22           Ru  tau(  22) = (   0.7500000   0.4523832   1.6879622  )
        23           O   tau(  23) = (   0.2500000   0.7294371   1.6879622  )
        24           O   tau(  24) = (   0.7500000   0.7294371   1.6879622  )
        25           O   tau(  25) = (   0.0000000   0.4523832   1.8820504  )
        26           O   tau(  26) = (   0.5000000   0.4523832   1.8820504  )
        27           O   tau(  27) = (   0.0000000   0.0000000   1.9946609  )
        28           O   tau(  28) = (   0.5000000   0.0000000   1.9946609  )
        29           Ru  tau(  29) = (   0.2500000   0.0000000   2.1887525  )
        30           Ru  tau(  30) = (   0.7500000   0.0000000   2.1887525  )
        31           O   tau(  31) = (   0.2500000   0.2770530   2.1887525  )
        32           O   tau(  32) = (   0.7500000   0.2770530   2.1887525  )
        33           Ru  tau(  33) = (   0.0000000   0.4523832   2.1887525  )
        34           Ru  tau(  34) = (   0.5000000   0.4523832   2.1887525  )
        35           O   tau(  35) = (   0.2500000   0.6277133   2.1887525  )
        36           O   tau(  36) = (   0.7500000   0.6277133   2.1887525  )
        37           O   tau(  37) = (   0.0000000   0.0000000   2.3828441  )
        38           O   tau(  38) = (   0.5000000   0.0000000   2.3828441  )
        39           O   tau(  39) = (   0.0000000   0.4523832   2.4954513  )
        40           O   tau(  40) = (   0.5000000   0.4523832   2.4954513  )
        41           H   tau(  41) = (   0.1176350   0.4523832   0.7660733  )
        42           H   tau(  42) = (   0.1176350   0.4523832   2.6098442  )
        43           H   tau(  43) = (   0.0000000   0.1033388   0.8786804  )
        44           H   tau(  44) = (   0.0000000   0.1033388   2.4972371  )
        45           H   tau(  45) = (   0.0000000   0.8014275   0.8786804  )
        46           H   tau(  46) = (   0.0000000   0.8014275   2.4972371  )

     number of k points=     1  Marzari-Vanderbilt smearing, width (Ry)=  0.0300
                       cart. coord. in units 2pi/alat
        k(    1) = (   0.2500000   0.2763144   0.0000000), wk =   2.0000000

     Check: negative core charge=   -0.000001

     Initial potential from superposition of free atoms

     starting charge     365.9933, renormalised to     366.0000

     add environment contribution to local potential
     Polarization accuracy = 8.4E-12, # of iterations =  24

     negative rho (up, down):  2.446E-05 0.000E+00
     Starting wfcs are  238 randomized atomic wfcs
     Checking if some PAW data can be deallocated...

     Self-consistent Calculation

     iteration #  1     ecut=    50.00 Ry     beta= 0.70
     Davidson diagonalization with overlap
     ethr =  1.00E-02,  avg # of iterations =  2.0

     negative rho (up, down):  4.014E-08 0.000E+00

     total energy              =   -3431.92696465 Ry
     estimated scf accuracy    <      10.37035762 Ry
     electrostatic embedding   =      -0.00177309 Ry
     cavitation energy         =       0.02000368 Ry
     PV energy                 =      -0.08698186 Ry
     correction to one-el term =     221.70893973 Ry

[...]

     the potential shift due to the Gaussian-smeared nuclei is    -1.3466 ev

     End of self-consistent calculation

          k = 0.2500 0.2763 0.0000 ( 34692 PWs)   bands (ev):

   -77.0663 -77.0529 -76.9470 -76.9338 -76.9299 -76.9167 -76.8513 -76.8285
   -76.8273 -76.8150 -76.7241 -76.7152 -47.4172 -47.4040 -47.3953 -47.3822
   -47.3520 -47.3429 -47.2369 -47.2235 -47.0709 -47.0574 -46.9892 -46.9758
[...]
     atom   18 type  2   force =     0.06710412   -0.00000000   -0.00583696
     atom   19 type  1   force =     0.15556029   -0.58688684   -0.00247069
     atom   20 type  1   force =    -0.13957459   -0.61352285   -0.00247491
     atom   21 type  2   force =    -1.06086188    0.00000000   -0.00605588
     atom   22 type  2   force =     0.96628997    0.00000000   -0.00606714
     atom   23 type  1   force =     0.15555813    0.58654032   -0.00247069
     atom   24 type  1   force =    -0.13957666    0.61317684   -0.00247491
     atom   25 type  1   force =     0.11326423    0.00000000  -25.11829493
     atom   26 type  1   force =    -0.15760480    0.00000000  -27.16901358
     atom   27 type  1   force =    -0.03096608   -0.00000000  -40.55606571
     atom   28 type  1   force =    -0.20104326    0.00000000  -37.10799274
     atom   29 type  2   force =     6.67380160    0.00000000 -172.49297945
     atom   30 type  2   force =    -6.22007834    0.00000000 -172.97615037
     atom   31 type  1   force =     0.39533365    0.49330250  -62.73107083
     atom   32 type  1   force =    -0.69982294    0.46652977  -64.48784283
     atom   33 type  2   force =     1.18533662    0.00000000 -168.90578995
     atom   34 type  2   force =    -0.99029543    0.00000000 -175.35350734
     atom   35 type  1   force =     0.39533365   -0.49330250  -62.73107083
     atom   36 type  1   force =    -0.69982294   -0.46652977  -64.48784283
     atom   37 type  1   force =    -0.05761546    0.00000000  -90.83778297
     atom   38 type  1   force =    -0.14288591   -0.00000000  -94.68639719
     atom   39 type  1   force =     1.66013203    0.00000000  -95.00289769
     atom   40 type  1   force =    -0.16232978    0.00000000 -100.06696458
     atom   41 type  3   force =    -2.75019408    0.00000000   16.26315932
     atom   42 type  3   force =    -2.75019408    0.00000000  -16.26315932
     atom   43 type  3   force =     0.09556472   -2.13134947   16.97780644
     atom   44 type  3   force =     0.09556472   -2.13134947  -16.97780644
     atom   45 type  3   force =     0.09556472    2.13134947   16.97780644
     atom   46 type  3   force =     0.09556472    2.13134947  -16.97780644
     The core correction contribution to forces
     atom    1 type  1   force =    -0.01727237   -0.00000000   -0.00487604
     atom    2 type  1   force =    -0.00009409   -0.00000000   -0.01022129
     atom    3 type  1   force =     0.00064390    0.00000000    0.01356706
     atom    4 type  1   force =     0.00002956    0.00000000   -0.01239417
     atom    5 type  2   force =     0.00000000    0.00000000    0.00000000
     atom    6 type  2   force =     0.00000000    0.00000000    0.00000000
     atom    7 type  1   force =    -0.00057964    0.00020760    0.00104043
     atom    8 type  1   force =     0.00117939    0.00022880    0.00047937
     atom    9 type  2   force =     0.00000000    0.00000000    0.00000000
     atom   10 type  2   force =     0.00000000    0.00000000    0.00000000
     atom   11 type  1   force =    -0.00057965   -0.00020760    0.00104043
     atom   12 type  1   force =     0.00117939   -0.00022880    0.00047937
     atom   13 type  1   force =     0.00011772   -0.00000000   -0.00162037
     atom   14 type  1   force =     0.00024560   -0.00000000    0.00251605
     atom   15 type  1   force =     0.00025284    0.00000000    0.00063407
     atom   16 type  1   force =     0.00006546    0.00000000   -0.00262564
     atom   17 type  2   force =     0.00000000    0.00000000    0.00000000
     atom   18 type  2   force =     0.00000000    0.00000000    0.00000000
     atom   19 type  1   force =    -0.00042504   -0.00042571   -0.00000208
     atom   20 type  1   force =     0.00010653   -0.00037997   -0.00000209
     atom   21 type  2   force =     0.00000000    0.00000000    0.00000000
     atom   22 type  2   force =     0.00000000    0.00000000    0.00000000
     atom   23 type  1   force =    -0.00042505    0.00042520   -0.00000208
     atom   24 type  1   force =     0.00010653    0.00037947   -0.00000210
     atom   25 type  1   force =     0.00025280    0.00000000   -0.00063630
     atom   26 type  1   force =     0.00006548   -0.00000000    0.00262355
     atom   27 type  1   force =     0.00011772   -0.00000000    0.00161808
     atom   28 type  1   force =     0.00024563    0.00000000   -0.00251843
     atom   29 type  2   force =     0.00000000    0.00000000    0.00000000
     atom   30 type  2   force =     0.00000000    0.00000000    0.00000000
     atom   31 type  1   force =    -0.00057954    0.00020761   -0.00104220
     atom   32 type  1   force =     0.00117925    0.00022888   -0.00048119
     atom   33 type  2   force =     0.00000000    0.00000000    0.00000000
     atom   34 type  2   force =     0.00000000    0.00000000    0.00000000
     atom   35 type  1   force =    -0.00057954   -0.00020760   -0.00104220
     atom   36 type  1   force =     0.00117925   -0.00022888   -0.00048119
     atom   37 type  1   force =     0.00064392    0.00000000   -0.01357069
     atom   38 type  1   force =     0.00002949   -0.00000000    0.01239045
     atom   39 type  1   force =    -0.01727314   -0.00000000    0.00487371
     atom   40 type  1   force =    -0.00009423   -0.00000000    0.01021935
     atom   41 type  3   force =     0.00000000    0.00000000    0.00000000
     atom   42 type  3   force =     0.00000000    0.00000000    0.00000000
     atom   43 type  3   force =     0.00000000    0.00000000    0.00000000
     atom   44 type  3   force =     0.00000000    0.00000000    0.00000000
     atom   45 type  3   force =     0.00000000    0.00000000    0.00000000
     atom   46 type  3   force =     0.00000000    0.00000000    0.00000000
     The Hubbard contrib.    to forces
     atom    1 type  1   force =     0.00000000    0.00000000    0.00000000
     atom    2 type  1   force =     0.00000000    0.00000000    0.00000000
     atom    3 type  1   force =     0.00000000    0.00000000    0.00000000
     atom    4 type  1   force =     0.00000000    0.00000000    0.00000000
     atom    5 type  2   force =     0.00000000    0.00000000    0.00000000
     atom    6 type  2   force =     0.00000000    0.00000000    0.00000000
     atom    7 type  1   force =     0.00000000    0.00000000    0.00000000
     atom    8 type  1   force =     0.00000000    0.00000000    0.00000000
     atom    9 type  2   force =     0.00000000    0.00000000    0.00000000
     atom   10 type  2   force =     0.00000000    0.00000000    0.00000000
     atom   11 type  1   force =     0.00000000    0.00000000    0.00000000
     atom   12 type  1   force =     0.00000000    0.00000000    0.00000000
     atom   13 type  1   force =     0.00000000    0.00000000    0.00000000
     atom   14 type  1   force =     0.00000000    0.00000000    0.00000000
     atom   15 type  1   force =     0.00000000    0.00000000    0.00000000
     atom   16 type  1   force =     0.00000000    0.00000000    0.00000000
     atom   17 type  2   force =     0.00000000    0.00000000    0.00000000
     atom   18 type  2   force =     0.00000000    0.00000000    0.00000000
     atom   19 type  1   force =     0.00000000    0.00000000    0.00000000
     atom   20 type  1   force =     0.00000000    0.00000000    0.00000000
     atom   21 type  2   force =     0.00000000    0.00000000    0.00000000
     atom   22 type  2   force =     0.00000000    0.00000000    0.00000000
     atom   23 type  1   force =     0.00000000    0.00000000    0.00000000
     atom   24 type  1   force =     0.00000000    0.00000000    0.00000000
     atom   25 type  1   force =     0.00000000    0.00000000    0.00000000
     atom   26 type  1   force =     0.00000000    0.00000000    0.00000000
     atom   27 type  1   force =     0.00000000    0.00000000    0.00000000
     atom   28 type  1   force =     0.00000000    0.00000000    0.00000000
     atom   29 type  2   force =     0.00000000    0.00000000    0.00000000
     atom   30 type  2   force =     0.00000000    0.00000000    0.00000000
     atom   31 type  1   force =     0.00000000    0.00000000    0.00000000
     atom   32 type  1   force =     0.00000000    0.00000000    0.00000000
     atom   33 type  2   force =     0.00000000    0.00000000    0.00000000
     atom   34 type  2   force =     0.00000000    0.00000000    0.00000000
     atom   35 type  1   force =     0.00000000    0.00000000    0.00000000
     atom   36 type  1   force =     0.00000000    0.00000000    0.00000000
     atom   37 type  1   force =     0.00000000    0.00000000    0.00000000
     atom   38 type  1   force =     0.00000000    0.00000000    0.00000000
     atom   39 type  1   force =     0.00000000    0.00000000    0.00000000
     atom   40 type  1   force =     0.00000000    0.00000000    0.00000000
     atom   41 type  3   force =     0.00000000    0.00000000    0.00000000
     atom   42 type  3   force =     0.00000000    0.00000000    0.00000000
     atom   43 type  3   force =     0.00000000    0.00000000    0.00000000
     atom   44 type  3   force =     0.00000000    0.00000000    0.00000000
     atom   45 type  3   force =     0.00000000    0.00000000    0.00000000
     atom   46 type  3   force =     0.00000000    0.00000000    0.00000000
     The SCF correction term to forces
     atom    1 type  1   force =    -0.00000017    0.00000000    0.00000057
     atom    2 type  1   force =     0.00000015    0.00000000    0.00000047
     atom    3 type  1   force =    -0.00000034   -0.00000000    0.00000072
     atom    4 type  1   force =     0.00000023    0.00000000    0.00000059
     atom    5 type  2   force =     0.00000004   -0.00000000    0.00000164
     atom    6 type  2   force =     0.00000013    0.00000000    0.00000137
     atom    7 type  1   force =    -0.00000007   -0.00000003    0.00000063
     atom    8 type  1   force =     0.00000010   -0.00000009    0.00000057
     atom    9 type  2   force =    -0.00000032   -0.00000000    0.00000176
     atom   10 type  2   force =     0.00000036   -0.00000000    0.00000183
     atom   11 type  1   force =    -0.00000007    0.00000003    0.00000063
     atom   12 type  1   force =     0.00000010    0.00000009    0.00000057
     atom   13 type  1   force =    -0.00000012    0.00000000    0.00000047
     atom   14 type  1   force =     0.00000012   -0.00000000    0.00000039
     atom   15 type  1   force =    -0.00000008   -0.00000000    0.00000035
     atom   16 type  1   force =     0.00000011   -0.00000000    0.00000037
     atom   17 type  2   force =    -0.00000012    0.00000000    0.00000002
     atom   18 type  2   force =     0.00000016    0.00000000    0.00000002
     atom   19 type  1   force =    -0.00000015    0.00000005    0.00000001
     atom   20 type  1   force =     0.00000010    0.00000010    0.00000001
     atom   21 type  2   force =    -0.00000010   -0.00000000    0.00000002
     atom   22 type  2   force =     0.00000006   -0.00000000    0.00000002
     atom   23 type  1   force =    -0.00000015   -0.00000005    0.00000001
     atom   24 type  1   force =     0.00000010   -0.00000010    0.00000001
     atom   25 type  1   force =    -0.00000008   -0.00000000   -0.00000033
     atom   26 type  1   force =     0.00000011    0.00000000   -0.00000036
     atom   27 type  1   force =    -0.00000012    0.00000000   -0.00000046
     atom   28 type  1   force =     0.00000012   -0.00000000   -0.00000038
     atom   29 type  2   force =     0.00000004    0.00000000   -0.00000165
     atom   30 type  2   force =     0.00000014    0.00000000   -0.00000138
     atom   31 type  1   force =    -0.00000008   -0.00000003   -0.00000063
     atom   32 type  1   force =     0.00000010   -0.00000009   -0.00000057
     atom   33 type  2   force =    -0.00000032   -0.00000000   -0.00000177
     atom   34 type  2   force =     0.00000036   -0.00000000   -0.00000184
     atom   35 type  1   force =    -0.00000008    0.00000003   -0.00000063
     atom   36 type  1   force =     0.00000010    0.00000009   -0.00000057
     atom   37 type  1   force =    -0.00000034   -0.00000000   -0.00000073
     atom   38 type  1   force =     0.00000023    0.00000000   -0.00000059
     atom   39 type  1   force =    -0.00000017   -0.00000000   -0.00000058
     atom   40 type  1   force =     0.00000015    0.00000000   -0.00000048
     atom   41 type  3   force =    -0.00000000   -0.00000000    0.00000007
     atom   42 type  3   force =    -0.00000000    0.00000000   -0.00000007
     atom   43 type  3   force =    -0.00000003    0.00000000    0.00000008
     atom   44 type  3   force =    -0.00000003    0.00000000   -0.00000008
     atom   45 type  3   force =    -0.00000003   -0.00000000    0.00000008
     atom   46 type  3   force =    -0.00000003   -0.00000000   -0.00000008

     Total force =     0.000305     Total SCF correction =     0.000006
     Energy error            =      2.3E-07 Ry
     Gradient error          =      9.5E-05 Ry/Bohr

     bfgs converged in  43 scf cycles and  42 bfgs steps
     (criteria: energy <  1.0E-04 Ry, force <  1.0E-04 Ry/Bohr)

     End of BFGS Geometry Optimization

     Final energy             =   -3435.0551400175 Ry

     File /storage/home/mgm6007/ixd4/Maria/Strain1_Files/RuO2-110-0-024/RuO2-110-0-024.bfgs deleted, as requested
Begin final coordinates

ATOMIC_POSITIONS (crystal)
O             0.0104079839        0.5000000000        0.2682703701
O             0.4828528634        0.5000000000        0.2723555635
O            -0.0033662673        0.0000000000        0.2905420969
O             0.4977374343        0.0000000000        0.3062034071
Ru            0.2630531301        0.0000000000        0.3578553002
Ru            0.7347400426        0.0000000000        0.3573365601
O             0.2467029772        0.3114178640        0.3590926300
O             0.7531552961        0.3127284565        0.3568735781
Ru            0.0012304577        0.5000000000        0.3589532555
Ru            0.5016626017        0.5000000000        0.3508390552
O             0.2467029772        0.6885821360        0.3590926300
O             0.7531552961        0.6872715435        0.3568735781
O            -0.0035311275        0.0000000000        0.4106599474
O             0.4990871992        0.0000000000        0.4117539062
O            -0.0001876378        0.5000000000        0.4467372054
O             0.5000754170        0.5000000000        0.4431369909
Ru           -0.0027784857        0.0000000000        0.5000010000
Ru            0.4974390776        0.0000000000        0.5000010000
O             0.2461207978        0.1860672155        0.5000010000
O             0.7472099375        0.1862472662        0.5000010000
Ru            0.2536729208        0.5000000000        0.5000010000
Ru            0.7481082341        0.5000000000        0.5000010000
O             0.2461207978        0.8139337845        0.5000010000
O             0.7472099375        0.8137537338        0.5000010000
O            -0.0001876378        0.5000000000        0.5532637946
O             0.5000754170        0.5000000000        0.5568640091
O            -0.0035311275        0.0000000000        0.5893410526
O             0.4990871992        0.0000000000        0.5882470938
Ru            0.2630531301        0.0000000000        0.6421456998
Ru            0.7347400426        0.0000000000        0.6426644399
O             0.2467029772        0.3114178640        0.6409083700
O             0.7531552961        0.3127284565        0.6431274219
Ru            0.0012304577        0.5000000000        0.6410477445
Ru            0.5016626017        0.5000000000        0.6491619448
O             0.2467029772        0.6885821360        0.6409083700
O             0.7531552961        0.6872715435        0.6431274219
O            -0.0033662673        0.0000000000        0.7094599031
O             0.4977374343        0.0000000000        0.6937985929
O             0.0104079839        0.5000000000        0.7317306299
O             0.4828528634        0.5000000000        0.7276454365
H             0.1540869588        0.5000000000        0.2558050604
H             0.1540869588        0.5000000000        0.7441949396
H            -0.0057411056        0.1357261154        0.2642425571
H            -0.0057411056        0.1357261154        0.7357574429
H            -0.0057411056        0.8642738846        0.2642425571
H            -0.0057411056        0.8642738846        0.7357574429
End final coordinates

     Writing all to output data dir /storage/home/mgm6007/ixd4/Maria/Strain1_Files/RuO2-110-0-024/RuO2-110-0-024.save/

     General routines

     Parallel routines

     Environ routines

   This run was terminated on:  15: 4:14  16Jul2023

   JOB DONE.