     Program PWSCF v.7.2 starts on 26Jul2023 at 11:16:13
        Git branch: heads/qe-7.2
        Last git commit: b4c5e8deeb7d1863e7553a87b45f8d22c21926a5
        Last git commit date: Mon Mar 27 16:12:09 2023 +0000
        Last git commit subject: Merge branch 'merge_fix_hubbard' into 'develop'

     Reading input from RuO2-110-0-03.in

     Current dimensions of program PWSCF are:
     Max number of different atomic species (ntypx) = 10
     Max number of k-points (npk) =  40000
     Max angular momentum in pseudopotentials (lmaxx) =  4

     Reading input from environ.in:
     * Environ restarting
     * setting up water environment
     * using electronic solvent mode
     * setting boundary derivatives method to SCCS default

     file O.pbe-n-kjpaw_psl.0.1.UPF: wavefunction(s)  2P renormalized
     Message from routine setup:
     using ibrav=0 with symmetry is DISCOURAGED, use correct ibrav instead

     R & G space division:  proc/nbgrp/npool/nimage =      20
     Subspace diagonalization in iterative solution of the eigenvalue problem:
     one sub-group per band group will be used

     Using Slab Decomposition

     bravais-lattice index     =            0
     lattice parameter (alat)  =      12.3824  a.u.
     unit-cell volume          =    5825.9133 (a.u.)^3
     number of atoms/cell      =           44
     number of atomic types    =            3
     number of electrons       =       364.00
     number of Kohn-Sham states=          218
     kinetic-energy cutoff     =      50.0000  Ry
     charge density cutoff     =     500.0000  Ry
     scf convergence threshold =      1.0E-09
     mixing beta               =       0.7000
     number of iterations used =            8  local-TF  mixing
     energy convergence thresh.=      1.0E-04
     force convergence thresh. =      1.0E-04
     Exchange-correlation= PBE
                           (   1   4   3   4   0   0   0)
     nstep                     =          200

                                  Environ Setup Summary

          O. Andreussi, I. Dabo and N. Marzari, J. Chem. Phys. 136, 064102 (2012)

     in publications or presentations arising from this work.

     Parameters

     compensation onset threshold      =               0.1000E+00
     static permittivity               =                    78.30
     surface tension in input (dyn/cm) =                    47.90
     surface tension in internal units =               0.6153E-04
     external pressure in input (GPa)  =                    -0.36
     external pressure in inter. units =              -0.2447E-04

     Solvent Boundary

     solvent mode                      =               electronic
     derivatives method                =                    chain
     numerical core for derivatives    =                      fft
     switching function adopted        =                     SCCS
     density limit for vacuum region   =               0.5000E-02
     density limit for bulk solvent    =               0.1000E-03

     Electrostatic Setup

     electrostatic problem to solve    =              generalized
     numerical solver adopted          =                       cg
     type of auxiliary density adopted =                     none
     numerical core for poisson        =                      fft
     type of pbc corrections           =                parabolic
     numerical core for corrections    =                      1da

     celldm(1)=  12.382447  celldm(2)=   0.000000  celldm(3)=   0.000000
     celldm(4)=   0.000000  celldm(5)=   0.000000  celldm(6)=   0.000000

     crystal axes: (cart. coord. in units of alat)
               a(1) = (   1.000000   0.000000   0.000000 )
               a(2) = (   0.000000   0.908473   0.000000 )
               a(3) = (   0.000000   0.000000   3.377790 )

     reciprocal axes: (cart. coord. in units 2 pi/alat)
               b(1) = (  1.000000  0.000000  0.000000 )
               b(2) = (  0.000000  1.100748  0.000000 )
               b(3) = (  0.000000  0.000000  0.296052 )

     PseudoPot. # 1 for O  read from file:
     /gpfs/group/ixd4/default/Simon/pseudopotentials/materialscloud/SSSP_1.3.0_PBE_efficiency/O.pbe-n-kjpaw_psl.0.1.UPF
     MD5 check sum: 0234752ac141de4415c5fc33072bef88
     Pseudo is Projector augmented-wave + core cor, Zval =  6.0
     Generated using "atomic" code by A. Dal Corso  v.5.0.99 svn rev. 10869
     Shape of augmentation charge: BESSEL
     Using radial grid of 1095 points,  4 beta functions with:
                l(1) =   0
                l(2) =   0
                l(3) =   1
                l(4) =   1
     Q(r) pseudized with 0 coefficients

     PseudoPot. # 2 for Ru read from file:
     /gpfs/group/ixd4/default/Simon/pseudopotentials/materialscloud/SSSP_1.3.0_PBE_efficiency/Ru_ONCV_PBE-1.0.oncvpsp.upf
     MD5 check sum: be037bb81c227cfb9b1461a9f099f4bd
     Pseudo is Norm-conserving, Zval = 16.0
     Generated using ONCVPSP code by D. R. Hamann
     Using radial grid of 1458 points,  6 beta functions with:
                l(1) =   0
                l(2) =   0
                l(3) =   1
                l(4) =   1
                l(5) =   2
                l(6) =   2

     PseudoPot. # 3 for H  read from file:
     /gpfs/group/ixd4/default/Simon/pseudopotentials/materialscloud/SSSP_1.3.0_PBE_efficiency/H.pbe-rrkjus_psl.1.0.0.UPF
     MD5 check sum: f52b6d4d1c606e5624b1dc7b2218f220
     Pseudo is Ultrasoft, Zval =  1.0
     Generated using "atomic" code by A. Dal Corso  v.5.1
     Using radial grid of  929 points,  2 beta functions with:
                l(1) =   0
                l(2) =   0
     Q(r) pseudized with 0 coefficients

     atomic species   valence    mass     pseudopotential
        O              6.00    15.99940     O ( 1.00)
        Ru            16.00   101.07000     Ru( 1.00)
        H              1.00     1.00794     H ( 1.00)

      2 Sym. Ops. (no inversion) found

   Cartesian axes

     site n.     atom                  positions (alat units)
         1           O   tau(   1) = (   0.0070050   0.4570842   0.9176752  )
         2           O   tau(   2) = (   0.4780830   0.4567716   0.9254017  )
         3           O   tau(   3) = (  -0.0008723   0.0007206   1.0432355  )
         4           O   tau(   4) = (   0.4968080  -0.0011951   1.0135142  )
         5           Ru  tau(   5) = (   0.2439411   0.0024745   1.2053940  )
         6           Ru  tau(   6) = (   0.7519411   0.0027040   1.2029083  )
         7           O   tau(   7) = (   0.2475600   0.2786874   1.2129544  )
         8           O   tau(   8) = (   0.7517832   0.2821538   1.2046143  )
         9           Ru  tau(   9) = (   0.0021863   0.4565734   1.2095677  )
        10           Ru  tau(  10) = (   0.5036744   0.4571120   1.1866517  )
        11           O   tau(  11) = (   0.2472539   0.6341398   1.2138375  )
        12           O   tau(  12) = (   0.7520493   0.6307511   1.2061459  )
        13           O   tau(  13) = (  -0.0035063   0.0015369   1.3916217  )
        14           O   tau(  14) = (   0.5016083   0.0020535   1.3930894  )
        15           O   tau(  15) = (  -0.0000773   0.4558879   1.5075580  )
        16           O   tau(  16) = (   0.4963743   0.4560866   1.4894002  )
        17           Ru  tau(  17) = (  -0.0047399   0.0022449   1.6888985  )
        18           Ru  tau(  18) = (   0.5013209   0.0014140   1.6888985  )
        19           O   tau(  19) = (   0.2503017   0.1749582   1.6888985  )
        20           O   tau(  20) = (   0.7467070   0.1813801   1.6888985  )
        21           Ru  tau(  21) = (   0.2552587   0.4558167   1.6888985  )
        22           Ru  tau(  22) = (   0.7439240   0.4559297   1.6888985  )
        23           O   tau(  23) = (   0.2503588   0.7371276   1.6888985  )
        24           O   tau(  24) = (   0.7465549   0.7306164   1.6888985  )
        25           O   tau(  25) = (  -0.0000773   0.4558879   1.8702357  )
        26           O   tau(  26) = (   0.4963743   0.4560866   1.8883935  )
        27           O   tau(  27) = (  -0.0035063   0.0015369   1.9861720  )
        28           O   tau(  28) = (   0.5016083   0.0020535   1.9847043  )
        29           Ru  tau(  29) = (   0.2439411   0.0024745   2.1723997  )
        30           Ru  tau(  30) = (   0.7519411   0.0027040   2.1748854  )
        31           O   tau(  31) = (   0.2475600   0.2786874   2.1648393  )
        32           O   tau(  32) = (   0.7517832   0.2821538   2.1731794  )
        33           Ru  tau(  33) = (   0.0021863   0.4565734   2.1682260  )
        34           Ru  tau(  34) = (   0.5036744   0.4571120   2.1911420  )
        35           O   tau(  35) = (   0.2472539   0.6341398   2.1639562  )
        36           O   tau(  36) = (   0.7520493   0.6307511   2.1716478  )
        37           O   tau(  37) = (  -0.0008723   0.0007206   2.3345616  )
        38           O   tau(  38) = (   0.4968080  -0.0011951   2.3642829  )
        39           O   tau(  39) = (   0.0070050   0.4570842   2.4601185  )
        40           O   tau(  40) = (   0.4780830   0.4567716   2.4523920  )
        41           H   tau(  41) = (   0.1511892   0.4597750   0.8643141  )
        42           H   tau(  42) = (   0.1511892   0.4597750   2.5134762  )
        43           H   tau(  43) = (   0.4957906   0.0600120   0.8803651  )
        44           H   tau(  44) = (   0.4957906   0.0600120   2.4974252  )

     number of k points=     2  Marzari-Vanderbilt smearing, width (Ry)=  0.0300
                       cart. coord. in units 2pi/alat
        k(    1) = (   0.2500000   0.2751871   0.0000000), wk =   1.0000000
        k(    2) = (  -0.2500000   0.2751871   0.0000000), wk =   1.0000000

     Check: negative core charge=   -0.000001

     Initial potential from superposition of free atoms

     starting charge     363.9933, renormalised to     364.0000

     add environment contribution to local potential
     Polarization accuracy = 5.9E-12, # of iterations =  24

     negative rho (up, down):  3.165E-05 0.000E+00
     Starting wfcs are  236 randomized atomic wfcs
     Checking if some PAW data can be deallocated...

     Self-consistent Calculation

     iteration #  1     ecut=    50.00 Ry     beta= 0.70
     Davidson diagonalization with overlap
     ethr =  1.00E-02,  avg # of iterations =  2.0

     total energy              =   -3429.99297998 Ry
     estimated scf accuracy    <      10.25735110 Ry
     electrostatic embedding   =      -0.00176308 Ry
     cavitation energy         =       0.01971566 Ry
     PV energy                 =      -0.08308975 Ry
     correction to one-el term =     217.90012500 Ry

[...]

     negative rho (up, down):  5.663E-05 0.000E+00

[...]

     iteration # 17     ecut=    50.00 Ry     beta= 0.70
     Davidson diagonalization with overlap
     c_bands:  1 eigenvalues not converged
     ethr =  5.14E-08,  avg # of iterations = 13.5

[...]

     iteration # 19     ecut=    50.00 Ry     beta= 0.70
     Davidson diagonalization with overlap
     c_bands:  1 eigenvalues not converged
     ethr =  5.38E-09,  avg # of iterations = 12.0

[...]

     the potential shift due to the Gaussian-smeared nuclei is    -1.3353 ev

[...]
     atom    8 type  1   force =     0.67144055    0.57963644   64.05885230
     atom    9 type  2   force =     0.79521612   -0.00116199  170.75092042
     atom   10 type  2   force =    -0.59377769   -0.00455284  174.41176661
     atom   11 type  1   force =    -1.04698199   -0.49134000   62.56055096
     atom   12 type  1   force =     0.67060821   -0.58050259   64.04858863
     atom   13 type  1   force =     0.09950456    0.00008992   37.95150423
     atom   14 type  1   force =    -0.03236519   -0.00057489   39.76749809
     atom   15 type  1   force =     0.11177724    0.00013500   25.24414472
     atom   16 type  1   force =    -0.20184054    0.00066348   26.89092490
     atom   17 type  2   force =     0.21390775    0.00254904   -0.00586757
     atom   18 type  2   force =     0.14369685    0.00352291   -0.00589250
     atom   19 type  1   force =    -0.29274362   -0.48914890   -0.00247018
     atom   20 type  1   force =     0.27952081   -0.55132298   -0.00247403
     atom   21 type  2   force =    -1.59729527   -0.00049958   -0.00605264
     atom   22 type  2   force =     1.63967715    0.00061367   -0.00606469
     atom   23 type  1   force =    -0.29188705    0.48926822   -0.00247021
     atom   24 type  1   force =     0.27885616    0.55068796   -0.00247405
     atom   25 type  1   force =     0.11178093    0.00013506  -25.24591259
     atom   26 type  1   force =    -0.20183415    0.00066357  -26.89270835
     atom   27 type  1   force =     0.09950383    0.00008997  -37.95326896
     atom   28 type  1   force =    -0.03236112   -0.00057481  -39.76927557
     atom   29 type  2   force =    -3.77582026   -0.00088789 -174.99367606
     atom   30 type  2   force =     3.76024761    0.00045038 -175.56691549
     atom   31 type  1   force =    -1.04753773    0.49115977  -62.56076111
     atom   32 type  1   force =     0.67141957    0.57963866  -64.06132913
     atom   33 type  2   force =     0.79521653   -0.00116187 -170.75678042
     atom   34 type  2   force =    -0.59380657   -0.00455301 -174.41751727
     atom   35 type  1   force =    -1.04696219   -0.49134209  -62.56301246
     atom   36 type  1   force =     0.67058727   -0.58050482  -64.05106543
     atom   37 type  1   force =     0.17783986   -0.00018390  -94.58091214
     atom   38 type  1   force =    -0.15423072    0.00698890  -91.80050627
     atom   39 type  1   force =     1.49070669    0.00253939  -96.64581653
     atom   40 type  1   force =     0.02653773    0.00231919 -100.30365196
     atom   41 type  3   force =    -2.68901118   -0.00816597   16.58085928
     atom   42 type  3   force =    -2.68901118   -0.00816597  -16.58085928
     atom   43 type  3   force =    -0.02014924   -0.01374013   18.36921168
     atom   44 type  3   force =    -0.02014924   -0.01374013  -18.36921168
     The core correction contribution to forces
     atom    1 type  1   force =    -0.01797327   -0.00004054   -0.00408884
     atom    2 type  1   force =    -0.00020085   -0.00000287   -0.01056211
     atom    3 type  1   force =    -0.00010659   -0.00000140   -0.01153828
     atom    4 type  1   force =     0.00010545   -0.00010693    0.00946474
     atom    5 type  2   force =     0.00000000    0.00000000    0.00000000
     atom    6 type  2   force =     0.00000000    0.00000000    0.00000000
     atom    7 type  1   force =     0.00001284    0.00014817    0.00101707
     atom    8 type  1   force =     0.00078583    0.00003820    0.00041221
     atom    9 type  2   force =     0.00000000    0.00000000    0.00000000
     atom   10 type  2   force =     0.00000000    0.00000000    0.00000000
     atom   11 type  1   force =     0.00001122   -0.00014680    0.00101620
     atom   12 type  1   force =     0.00078702   -0.00003460    0.00041597
     atom   13 type  1   force =     0.00001402   -0.00000297    0.00075548
     atom   14 type  1   force =    -0.00009084    0.00000119   -0.00142905
     atom   15 type  1   force =     0.00028693   -0.00000196   -0.00000939
     atom   16 type  1   force =     0.00008973    0.00000212   -0.00243443
     atom   17 type  2   force =     0.00000000    0.00000000    0.00000000
     atom   18 type  2   force =     0.00000000    0.00000000    0.00000000
     atom   19 type  1   force =    -0.00017383   -0.00034649   -0.00000207
     atom   20 type  1   force =    -0.00005922   -0.00029430   -0.00000209
     atom   21 type  2   force =     0.00000000    0.00000000    0.00000000
     atom   22 type  2   force =     0.00000000    0.00000000    0.00000000
     atom   23 type  1   force =    -0.00017449    0.00034572   -0.00000208
     atom   24 type  1   force =    -0.00005851    0.00029352   -0.00000209
     atom   25 type  1   force =     0.00028688   -0.00000196    0.00000725
     atom   26 type  1   force =     0.00008976    0.00000212    0.00243237
     atom   27 type  1   force =     0.00001402   -0.00000297   -0.00075784
     atom   28 type  1   force =    -0.00009085    0.00000119    0.00142680
     atom   29 type  2   force =     0.00000000    0.00000000    0.00000000
     atom   30 type  2   force =     0.00000000    0.00000000    0.00000000
     atom   31 type  1   force =     0.00001284    0.00014806   -0.00101887
     atom   32 type  1   force =     0.00078583    0.00003819   -0.00041406
     atom   33 type  2   force =     0.00000000    0.00000000    0.00000000
     atom   34 type  2   force =     0.00000000    0.00000000    0.00000000
     atom   35 type  1   force =     0.00001122   -0.00014669   -0.00101800
     atom   36 type  1   force =     0.00078701   -0.00003458   -0.00041782
     atom   37 type  1   force =    -0.00010656   -0.00000140    0.01153428
     atom   38 type  1   force =     0.00010544   -0.00010695   -0.00947042
     atom   39 type  1   force =    -0.01797407   -0.00004054    0.00408655
     atom   40 type  1   force =    -0.00020108   -0.00000287    0.01056037
     atom   41 type  3   force =     0.00000000    0.00000000    0.00000000
     atom   42 type  3   force =     0.00000000    0.00000000    0.00000000
     atom   43 type  3   force =     0.00000000    0.00000000    0.00000000
     atom   44 type  3   force =     0.00000000    0.00000000    0.00000000
     The Hubbard contrib.    to forces
     atom    1 type  1   force =     0.00000000    0.00000000    0.00000000
     atom    2 type  1   force =     0.00000000    0.00000000    0.00000000
     atom    3 type  1   force =     0.00000000    0.00000000    0.00000000
     atom    4 type  1   force =     0.00000000    0.00000000    0.00000000
     atom    5 type  2   force =     0.00000000    0.00000000    0.00000000
     atom    6 type  2   force =     0.00000000    0.00000000    0.00000000
     atom    7 type  1   force =     0.00000000    0.00000000    0.00000000
     atom    8 type  1   force =     0.00000000    0.00000000    0.00000000
     atom    9 type  2   force =     0.00000000    0.00000000    0.00000000
     atom   10 type  2   force =     0.00000000    0.00000000    0.00000000
     atom   11 type  1   force =     0.00000000    0.00000000    0.00000000
     atom   12 type  1   force =     0.00000000    0.00000000    0.00000000
     atom   13 type  1   force =     0.00000000    0.00000000    0.00000000
     atom   14 type  1   force =     0.00000000    0.00000000    0.00000000
     atom   15 type  1   force =     0.00000000    0.00000000    0.00000000
     atom   16 type  1   force =     0.00000000    0.00000000    0.00000000
     atom   17 type  2   force =     0.00000000    0.00000000    0.00000000
     atom   18 type  2   force =     0.00000000    0.00000000    0.00000000
     atom   19 type  1   force =     0.00000000    0.00000000    0.00000000
     atom   20 type  1   force =     0.00000000    0.00000000    0.00000000
     atom   21 type  2   force =     0.00000000    0.00000000    0.00000000
     atom   22 type  2   force =     0.00000000    0.00000000    0.00000000
     atom   23 type  1   force =     0.00000000    0.00000000    0.00000000
     atom   24 type  1   force =     0.00000000    0.00000000    0.00000000
     atom   25 type  1   force =     0.00000000    0.00000000    0.00000000
     atom   26 type  1   force =     0.00000000    0.00000000    0.00000000
     atom   27 type  1   force =     0.00000000    0.00000000    0.00000000
     atom   28 type  1   force =     0.00000000    0.00000000    0.00000000
     atom   29 type  2   force =     0.00000000    0.00000000    0.00000000
     atom   30 type  2   force =     0.00000000    0.00000000    0.00000000
     atom   31 type  1   force =     0.00000000    0.00000000    0.00000000
     atom   32 type  1   force =     0.00000000    0.00000000    0.00000000
     atom   33 type  2   force =     0.00000000    0.00000000    0.00000000
     atom   34 type  2   force =     0.00000000    0.00000000    0.00000000
     atom   35 type  1   force =     0.00000000    0.00000000    0.00000000
     atom   36 type  1   force =     0.00000000    0.00000000    0.00000000
     atom   37 type  1   force =     0.00000000    0.00000000    0.00000000
     atom   38 type  1   force =     0.00000000    0.00000000    0.00000000
     atom   39 type  1   force =     0.00000000    0.00000000    0.00000000
     atom   40 type  1   force =     0.00000000    0.00000000    0.00000000
     atom   41 type  3   force =     0.00000000    0.00000000    0.00000000
     atom   42 type  3   force =     0.00000000    0.00000000    0.00000000
     atom   43 type  3   force =     0.00000000    0.00000000    0.00000000
     atom   44 type  3   force =     0.00000000    0.00000000    0.00000000
     The SCF correction term to forces
     atom    1 type  1   force =     0.00000012   -0.00000055   -0.00000150
     atom    2 type  1   force =     0.00000002   -0.00000039   -0.00000102
     atom    3 type  1   force =     0.00000050    0.00000026   -0.00000072
     atom    4 type  1   force =    -0.00000045    0.00000043   -0.00000076
     atom    5 type  2   force =     0.00000148    0.00000071   -0.00000112
     atom    6 type  2   force =    -0.00000144    0.00000077   -0.00000048
     atom    7 type  1   force =     0.00000064   -0.00000068   -0.00000050
     atom    8 type  1   force =    -0.00000074   -0.00000005   -0.00000013
     atom    9 type  2   force =    -0.00000006   -0.00000075   -0.00000053
     atom   10 type  2   force =     0.00000024   -0.00000081   -0.00000049
     atom   11 type  1   force =     0.00000058    0.00000046   -0.00000032
     atom   12 type  1   force =    -0.00000068   -0.00000022    0.00000008
     atom   13 type  1   force =     0.00000021    0.00000010   -0.00000046
     atom   14 type  1   force =    -0.00000007    0.00000018    0.00000001
     atom   15 type  1   force =    -0.00000102   -0.00000013    0.00000113
     atom   16 type  1   force =     0.00000123   -0.00000015    0.00000077
     atom   17 type  2   force =    -0.00000081   -0.00000005   -0.00000001
     atom   18 type  2   force =     0.00000096    0.00000003   -0.00000001
     atom   19 type  1   force =     0.00000081    0.00000039   -0.00000000
     atom   20 type  1   force =    -0.00000093    0.00000165   -0.00000000
     atom   21 type  2   force =     0.00000083   -0.00000004   -0.00000001
     atom   22 type  2   force =    -0.00000115   -0.00000004   -0.00000001
     atom   23 type  1   force =     0.00000077   -0.00000040   -0.00000000
     atom   24 type  1   force =    -0.00000088   -0.00000167   -0.00000000
     atom   25 type  1   force =    -0.00000102   -0.00000013   -0.00000114
     atom   26 type  1   force =     0.00000123   -0.00000015   -0.00000078
     atom   27 type  1   force =     0.00000022    0.00000010    0.00000046
     atom   28 type  1   force =    -0.00000007    0.00000018   -0.00000002
     atom   29 type  2   force =     0.00000148    0.00000071    0.00000111
     atom   30 type  2   force =    -0.00000143    0.00000077    0.00000047
     atom   31 type  1   force =     0.00000064   -0.00000068    0.00000050
     atom   32 type  1   force =    -0.00000074   -0.00000005    0.00000013
     atom   33 type  2   force =    -0.00000006   -0.00000075    0.00000052
     atom   34 type  2   force =     0.00000023   -0.00000081    0.00000049
     atom   35 type  1   force =     0.00000058    0.00000046    0.00000031
     atom   36 type  1   force =    -0.00000068   -0.00000022   -0.00000009
     atom   37 type  1   force =     0.00000050    0.00000026    0.00000072
     atom   38 type  1   force =    -0.00000045    0.00000043    0.00000076
     atom   39 type  1   force =     0.00000012   -0.00000055    0.00000150
     atom   40 type  1   force =     0.00000002   -0.00000039    0.00000102
     atom   41 type  3   force =     0.00000006   -0.00000005   -0.00000019
     atom   42 type  3   force =     0.00000006   -0.00000005    0.00000019
     atom   43 type  3   force =    -0.00000003    0.00000004   -0.00000011
     atom   44 type  3   force =    -0.00000003    0.00000004    0.00000011

     Total force =     0.000175     Total SCF correction =     0.000007
     Energy error            =      6.5E-08 Ry
     Gradient error          =      8.0E-05 Ry/Bohr

     bfgs converged in  69 scf cycles and  68 bfgs steps
     (criteria: energy <  1.0E-04 Ry, force <  1.0E-04 Ry/Bohr)

     End of BFGS Geometry Optimization

     Final energy             =   -3432.6004561877 Ry

     File /storage/home/mgm6007/ixd4/Maria/StrainJin_Files/RuO2-110-0-03/RuO2-110-0-03.bfgs deleted, as requested
Begin final coordinates

ATOMIC_POSITIONS (crystal)
O             0.0022350220        0.5052043474        0.2712203310
O             0.4843994030        0.5050588773        0.2745646866
O            -0.0002455759        0.0051464912        0.3069176106
O             0.4979041664        0.0051046007        0.3025451227
Ru            0.2409262093        0.0051648823        0.3564884264
Ru            0.7563849579        0.0051693088        0.3561648130
O             0.2481115023        0.3169571335        0.3600841937
O             0.7519144492        0.3182682836        0.3581371973
Ru            0.0013152677        0.5051599644        0.3583370644
Ru            0.5023400730        0.5051675181        0.3526028593
O             0.2481216930        0.6933657123        0.3600792408
O             0.7518996369        0.6920552556        0.3581525996
O            -0.0020521369        0.0051439102        0.4110955331
O             0.5002769315        0.0051441306        0.4118471137
O             0.0007318044        0.5051058647        0.4465228470
O             0.4997984942        0.5051114170        0.4436284497
Ru           -0.0018606031        0.0051068944        0.5000010000
Ru            0.4985182717        0.0050891994        0.5000010000
O             0.2478226905        0.1915446047        0.5000010000
O             0.7473841414        0.1917686612        0.5000010000
Ru            0.2532205245        0.5050944702        0.5000010000
Ru            0.7498475742        0.5050947314        0.5000010000
O             0.2478119616        0.8186485410        0.5000010000
O             0.7473973041        0.8184212195        0.5000010000
O             0.0007318044        0.5051058647        0.5534781530
O             0.4997984942        0.5051114170        0.5563725503
O            -0.0020521369        0.0051439102        0.5889054669
O             0.5002769315        0.0051441306        0.5881538863
Ru            0.2409262093        0.0051648823        0.6435125736
Ru            0.7563849579        0.0051693088        0.6438361870
O             0.2481115023        0.3169571335        0.6399168063
O             0.7519144492        0.3182682836        0.6418638027
Ru            0.0013152677        0.5051599644        0.6416639356
Ru            0.5023400730        0.5051675181        0.6473981407
O             0.2481216930        0.6933657123        0.6399217592
O             0.7518996369        0.6920552556        0.6418484004
O            -0.0002455759        0.0051464912        0.6930843894
O             0.4979041664        0.0051046007        0.6974568773
O             0.0022350220        0.5052043474        0.7287806690
O             0.4843994030        0.5050588773        0.7254363134
H             0.1409917197        0.5055894490        0.2545363385
H             0.1409917197        0.5055894490        0.7454636615
H             0.4975104497        0.0059156923        0.2584010686
H             0.4975104497        0.0059156923        0.7415989314
End final coordinates

     Writing all to output data dir /storage/home/mgm6007/ixd4/Maria/StrainJin_Files/RuO2-110-0-03/RuO2-110-0-03.save/

     General routines

     Parallel routines

     Environ routines

   This run was terminated on:  20: 5: 1  28Jul2023

   JOB DONE.