     Program PWSCF v.7.2 starts on 26Jul2023 at 11:22:51
        Git branch: heads/qe-7.2
        Last git commit: b4c5e8deeb7d1863e7553a87b45f8d22c21926a5
        Last git commit date: Mon Mar 27 16:12:09 2023 +0000
        Last git commit subject: Merge branch 'merge_fix_hubbard' into 'develop'

     Reading input from RuO2-110-0-01234.in

     Current dimensions of program PWSCF are:
     Max number of different atomic species (ntypx) = 10
     Max number of k-points (npk) =  40000
     Max angular momentum in pseudopotentials (lmaxx) =  4

     Reading input from environ.in:
     * Environ restarting
     * setting up water environment
     * using electronic solvent mode
     * setting boundary derivatives method to SCCS default

     file O.pbe-n-kjpaw_psl.0.1.UPF: wavefunction(s)  2P renormalized
     Message from routine setup:
     using ibrav=0 with symmetry is DISCOURAGED, use correct ibrav instead

     R & G space division:  proc/nbgrp/npool/nimage =      20
     Subspace diagonalization in iterative solution of the eigenvalue problem:
     one sub-group per band group will be used

     Using Slab Decomposition

     bravais-lattice index     =            0
     lattice parameter (alat)  =      12.3824  a.u.
     unit-cell volume          =    5825.9133 (a.u.)^3
     number of atoms/cell      =           50
     number of atomic types    =            3
     number of electrons       =       370.00
     number of Kohn-Sham states=          222
     kinetic-energy cutoff     =      50.0000  Ry
     charge density cutoff     =     500.0000  Ry
     scf convergence threshold =      1.0E-09
     mixing beta               =       0.7000
     number of iterations used =            8  local-TF  mixing
     energy convergence thresh.=      1.0E-04
     force convergence thresh. =      1.0E-04
     Exchange-correlation= PBE
                           (   1   4   3   4   0   0   0)
     nstep                     =          200

                                  Environ Setup Summary

          O. Andreussi, I. Dabo and N. Marzari, J. Chem. Phys. 136, 064102 (2012)

     in publications or presentations arising from this work.

     Parameters

     compensation onset threshold      =               0.1000E+00
     static permittivity               =                    78.30
     surface tension in input (dyn/cm) =                    47.90
     surface tension in internal units =               0.6153E-04
     external pressure in input (GPa)  =                    -0.36
     external pressure in inter. units =              -0.2447E-04

     Solvent Boundary

     solvent mode                      =               electronic
     derivatives method                =                    chain
     numerical core for derivatives    =                      fft
     switching function adopted        =                     SCCS
     density limit for vacuum region   =               0.5000E-02
     density limit for bulk solvent    =               0.1000E-03

     Electrostatic Setup

     electrostatic problem to solve    =              generalized
     numerical solver adopted          =                       cg
     type of auxiliary density adopted =                     none
     numerical core for poisson        =                      fft
     type of pbc corrections           =                parabolic
     numerical core for corrections    =                      1da

     celldm(1)=  12.382447  celldm(2)=   0.000000  celldm(3)=   0.000000
     celldm(4)=   0.000000  celldm(5)=   0.000000  celldm(6)=   0.000000

     crystal axes: (cart. coord. in units of alat)
               a(1) = (   1.000000   0.000000   0.000000 )
               a(2) = (   0.000000   0.908473   0.000000 )
               a(3) = (   0.000000   0.000000   3.377790 )

     reciprocal axes: (cart. coord. in units 2 pi/alat)
               b(1) = (  1.000000  0.000000  0.000000 )
               b(2) = (  0.000000  1.100748  0.000000 )
               b(3) = (  0.000000  0.000000  0.296052 )

     PseudoPot. # 1 for O  read from file:
     /gpfs/group/ixd4/default/Simon/pseudopotentials/materialscloud/SSSP_1.3.0_PBE_efficiency/O.pbe-n-kjpaw_psl.0.1.UPF
     MD5 check sum: 0234752ac141de4415c5fc33072bef88
     Pseudo is Projector augmented-wave + core cor, Zval =  6.0
     Generated using "atomic" code by A. Dal Corso  v.5.0.99 svn rev. 10869
     Shape of augmentation charge: BESSEL
     Using radial grid of 1095 points,  4 beta functions with:
                l(1) =   0
                l(2) =   0
                l(3) =   1
                l(4) =   1
     Q(r) pseudized with 0 coefficients

     PseudoPot. # 2 for Ru read from file:
     /gpfs/group/ixd4/default/Simon/pseudopotentials/materialscloud/SSSP_1.3.0_PBE_efficiency/Ru_ONCV_PBE-1.0.oncvpsp.upf
     MD5 check sum: be037bb81c227cfb9b1461a9f099f4bd
     Pseudo is Norm-conserving, Zval = 16.0
     Generated using ONCVPSP code by D. R. Hamann
     Using radial grid of 1458 points,  6 beta functions with:
                l(1) =   0
                l(2) =   0
                l(3) =   1
                l(4) =   1
                l(5) =   2
                l(6) =   2

     PseudoPot. # 3 for H  read from file:
     /gpfs/group/ixd4/default/Simon/pseudopotentials/materialscloud/SSSP_1.3.0_PBE_efficiency/H.pbe-rrkjus_psl.1.0.0.UPF
     MD5 check sum: f52b6d4d1c606e5624b1dc7b2218f220
     Pseudo is Ultrasoft, Zval =  1.0
     Generated using "atomic" code by A. Dal Corso  v.5.1
     Using radial grid of  929 points,  2 beta functions with:
                l(1) =   0
                l(2) =   0
     Q(r) pseudized with 0 coefficients

     atomic species   valence    mass     pseudopotential
        O              6.00    15.99940     O ( 1.00)
        Ru            16.00   101.07000     Ru( 1.00)
        H              1.00     1.00794     H ( 1.00)

      2 Sym. Ops. (no inversion) found

   Cartesian axes

     site n.     atom                  positions (alat units)
         1           O   tau(   1) = (   0.0405757   0.3975124   0.8861051  )
         2           O   tau(   2) = (   0.4564738   0.3919883   0.8996011  )
         3           O   tau(   3) = (  -0.0010160   0.0124548   1.0034704  )
         4           O   tau(   4) = (   0.4969067   0.0115883   1.0103921  )
         5           Ru  tau(   5) = (   0.2483419  -0.0070886   1.2114674  )
         6           Ru  tau(   6) = (   0.7480010  -0.0076930   1.2087417  )
         7           O   tau(   7) = (   0.2475741   0.2653329   1.2233046  )
         8           O   tau(   8) = (   0.7496737   0.2731783   1.2099590  )
         9           Ru  tau(   9) = (   0.0034238   0.4457879   1.2162073  )
        10           Ru  tau(  10) = (   0.4933857   0.4446312   1.2055893  )
        11           O   tau(  11) = (   0.2470595   0.6280463   1.1953197  )
        12           O   tau(  12) = (   0.7497529   0.6203173   1.1868951  )
        13           O   tau(  13) = (  -0.0036563  -0.0104576   1.3909068  )
        14           O   tau(  14) = (   0.4996244  -0.0082993   1.3893159  )
        15           O   tau(  15) = (  -0.0024047   0.4596109   1.5064187  )
        16           O   tau(  16) = (   0.4993397   0.4594924   1.4985229  )
        17           Ru  tau(  17) = (  -0.0028380   0.0019932   1.6888985  )
        18           Ru  tau(  18) = (   0.4993253   0.0019678   1.6888985  )
        19           O   tau(  19) = (   0.2485968   0.1779587   1.6888985  )
        20           O   tau(  20) = (   0.7474699   0.1799714   1.6888985  )
        21           Ru  tau(  21) = (   0.2516543   0.4576289   1.6888985  )
        22           Ru  tau(  22) = (   0.7452230   0.4583888   1.6888985  )
        23           O   tau(  23) = (   0.2495027   0.7358938   1.6888985  )
        24           O   tau(  24) = (   0.7472806   0.7344271   1.6888985  )
        25           O   tau(  25) = (  -0.0024047   0.4596109   1.8713750  )
        26           O   tau(  26) = (   0.4993397   0.4594924   1.8792708  )
        27           O   tau(  27) = (  -0.0036563  -0.0104576   1.9868869  )
        28           O   tau(  28) = (   0.4996244  -0.0082993   1.9884778  )
        29           Ru  tau(  29) = (   0.2483419  -0.0070886   2.1663263  )
        30           Ru  tau(  30) = (   0.7480010  -0.0076930   2.1690520  )
        31           O   tau(  31) = (   0.2475741   0.2653329   2.1544891  )
        32           O   tau(  32) = (   0.7496737   0.2731783   2.1678347  )
        33           Ru  tau(  33) = (   0.0034238   0.4457879   2.1615864  )
        34           Ru  tau(  34) = (   0.4933857   0.4446312   2.1722044  )
        35           O   tau(  35) = (   0.2470595   0.6280463   2.1824740  )
        36           O   tau(  36) = (   0.7497529   0.6203173   2.1908986  )
        37           O   tau(  37) = (  -0.0010160   0.0124548   2.3743267  )
        38           O   tau(  38) = (   0.4969067   0.0115883   2.3674050  )
        39           O   tau(  39) = (   0.0405757   0.3975124   2.4916886  )
        40           O   tau(  40) = (   0.4564738   0.3919883   2.4781926  )
        41           H   tau(  41) = (   0.1995373   0.4036321   0.8686685  )
        42           H   tau(  42) = (   0.1995373   0.4036321   2.5091219  )
        43           H   tau(  43) = (   0.5655914   0.4472583   0.8155288  )
        44           H   tau(  44) = (   0.5655914   0.4472583   2.5622616  )
        45           H   tau(  45) = (   0.0094425   0.2632350   0.8830862  )
        46           H   tau(  46) = (   0.0094425   0.2632350   2.4947041  )
        47           H   tau(  47) = (   0.4943102   0.1366095   0.9462975  )
        48           H   tau(  48) = (   0.4943102   0.1366095   2.4314928  )
        49           H   tau(  49) = (   0.0002254   0.8245302   0.8993383  )
        50           H   tau(  50) = (   0.0002254   0.8245302   2.4784520  )

     number of k points=     2  Marzari-Vanderbilt smearing, width (Ry)=  0.0300
                       cart. coord. in units 2pi/alat
        k(    1) = (   0.2500000   0.2751871   0.0000000), wk =   1.0000000
        k(    2) = (  -0.2500000   0.2751871   0.0000000), wk =   1.0000000

     Check: negative core charge=   -0.000001

     Initial potential from superposition of free atoms

     starting charge     369.9932, renormalised to     370.0000

     add environment contribution to local potential
     Polarization accuracy = 4.2E-12, # of iterations =  24

     negative rho (up, down):  2.513E-05 0.000E+00
     Starting wfcs are  242 randomized atomic wfcs
     Checking if some PAW data can be deallocated...

     Self-consistent Calculation

     iteration #  1     ecut=    50.00 Ry     beta= 0.70
     Davidson diagonalization with overlap
     ethr =  1.00E-02,  avg # of iterations =  3.5

     negative rho (up, down):  1.838E-08 0.000E+00

     total energy              =   -3438.14187742 Ry
     estimated scf accuracy    <       8.52408293 Ry
     electrostatic embedding   =      -0.00187866 Ry
     cavitation energy         =       0.01952984 Ry
     PV energy                 =      -0.08683282 Ry
     correction to one-el term =     226.54800655 Ry

[...]

[...]
     atom   37 type  1   force =     0.55770926    0.67717604  -91.29615335
     atom   38 type  1   force =    -0.55784933    2.51170657  -92.20767279
     atom   39 type  1   force =     2.33288386   -1.83456430  -92.72350444
     atom   40 type  1   force =    -0.62019209   -0.26691789  -93.55125328
     atom   41 type  3   force =    -2.25871526   -0.44158506   15.61548092
     atom   42 type  3   force =    -2.25871526   -0.44158506  -15.61548092
     atom   43 type  3   force =    -2.52014292   -1.45404205   16.54028463
     atom   44 type  3   force =    -2.52014292   -1.45404205  -16.54028463
     atom   45 type  3   force =     0.76784520    2.63116107   15.43479456
     atom   46 type  3   force =     0.76784520    2.63116107  -15.43479456
     atom   47 type  3   force =    -0.18485226   -1.52537100   16.63581343
     atom   48 type  3   force =    -0.18485226   -1.52537100  -16.63581343
     atom   49 type  3   force =     0.08725514    2.31303068   17.43737920
     atom   50 type  3   force =     0.08725514    2.31303068  -17.43737920
     The core correction contribution to forces
     atom    1 type  1   force =    -0.01136547    0.01274770   -0.00431133
     atom    2 type  1   force =    -0.01355389   -0.00697316    0.00251707
     atom    3 type  1   force =    -0.00033540    0.01316531    0.00467521
     atom    4 type  1   force =    -0.00011440   -0.01299131   -0.00250216
     atom    5 type  2   force =     0.00000000    0.00000000    0.00000000
     atom    6 type  2   force =     0.00000000    0.00000000    0.00000000
     atom    7 type  1   force =     0.00038276    0.00040756    0.00151791
     atom    8 type  1   force =     0.00045867    0.00087163    0.00083919
     atom    9 type  2   force =     0.00000000    0.00000000    0.00000000
     atom   10 type  2   force =     0.00000000    0.00000000    0.00000000
     atom   11 type  1   force =     0.00043486   -0.00044175   -0.00084886
     atom   12 type  1   force =     0.00044290   -0.00098017   -0.00115726
     atom   13 type  1   force =    -0.00026392   -0.00071131   -0.00027321
     atom   14 type  1   force =    -0.00015946   -0.00033838    0.00050798
     atom   15 type  1   force =     0.00019872    0.00066023    0.00206479
     atom   16 type  1   force =     0.00004323    0.00060593    0.00040228
     atom   17 type  2   force =     0.00000000    0.00000000    0.00000000
     atom   18 type  2   force =     0.00000000    0.00000000    0.00000000
     atom   19 type  1   force =    -0.00038567   -0.00053821   -0.00000209
     atom   20 type  1   force =    -0.00022095   -0.00046966   -0.00000208
     atom   21 type  2   force =     0.00000000    0.00000000    0.00000000
     atom   22 type  2   force =     0.00000000    0.00000000    0.00000000
     atom   23 type  1   force =    -0.00040354    0.00060966   -0.00000197
     atom   24 type  1   force =    -0.00026202    0.00057587   -0.00000194
     atom   25 type  1   force =     0.00019873    0.00066032   -0.00206743
     atom   26 type  1   force =     0.00004320    0.00060603   -0.00040466
     atom   27 type  1   force =    -0.00026392   -0.00071150    0.00027091
     atom   28 type  1   force =    -0.00015948   -0.00033855   -0.00051028
     atom   29 type  2   force =     0.00000000    0.00000000    0.00000000
     atom   30 type  2   force =     0.00000000    0.00000000    0.00000000
     atom   31 type  1   force =     0.00038277    0.00040759   -0.00151993
     atom   32 type  1   force =     0.00045862    0.00087174   -0.00084126
     atom   33 type  2   force =     0.00000000    0.00000000    0.00000000
     atom   34 type  2   force =     0.00000000    0.00000000    0.00000000
     atom   35 type  1   force =     0.00043490   -0.00044182    0.00084677
     atom   36 type  1   force =     0.00044287   -0.00098027    0.00115513
     atom   37 type  1   force =    -0.00033538    0.01316753   -0.00467973
     atom   38 type  1   force =    -0.00011436   -0.01299312    0.00249842
     atom   39 type  1   force =    -0.01136609    0.01274802    0.00431031
     atom   40 type  1   force =    -0.01355457   -0.00697344   -0.00251977
     atom   41 type  3   force =     0.00000000    0.00000000    0.00000000
     atom   42 type  3   force =     0.00000000    0.00000000    0.00000000
     atom   43 type  3   force =     0.00000000    0.00000000    0.00000000
     atom   44 type  3   force =     0.00000000    0.00000000    0.00000000
     atom   45 type  3   force =     0.00000000    0.00000000    0.00000000
     atom   46 type  3   force =     0.00000000    0.00000000    0.00000000
     atom   47 type  3   force =     0.00000000    0.00000000    0.00000000
     atom   48 type  3   force =     0.00000000    0.00000000    0.00000000
     atom   49 type  3   force =     0.00000000    0.00000000    0.00000000
     atom   50 type  3   force =     0.00000000    0.00000000    0.00000000
     The Hubbard contrib.    to forces
     atom    1 type  1   force =     0.00000000    0.00000000    0.00000000
     atom    2 type  1   force =     0.00000000    0.00000000    0.00000000
     atom    3 type  1   force =     0.00000000    0.00000000    0.00000000
     atom    4 type  1   force =     0.00000000    0.00000000    0.00000000
     atom    5 type  2   force =     0.00000000    0.00000000    0.00000000
     atom    6 type  2   force =     0.00000000    0.00000000    0.00000000
     atom    7 type  1   force =     0.00000000    0.00000000    0.00000000
     atom    8 type  1   force =     0.00000000    0.00000000    0.00000000
     atom    9 type  2   force =     0.00000000    0.00000000    0.00000000
     atom   10 type  2   force =     0.00000000    0.00000000    0.00000000
     atom   11 type  1   force =     0.00000000    0.00000000    0.00000000
     atom   12 type  1   force =     0.00000000    0.00000000    0.00000000
     atom   13 type  1   force =     0.00000000    0.00000000    0.00000000
     atom   14 type  1   force =     0.00000000    0.00000000    0.00000000
     atom   15 type  1   force =     0.00000000    0.00000000    0.00000000
     atom   16 type  1   force =     0.00000000    0.00000000    0.00000000
     atom   17 type  2   force =     0.00000000    0.00000000    0.00000000
     atom   18 type  2   force =     0.00000000    0.00000000    0.00000000
     atom   19 type  1   force =     0.00000000    0.00000000    0.00000000
     atom   20 type  1   force =     0.00000000    0.00000000    0.00000000
     atom   21 type  2   force =     0.00000000    0.00000000    0.00000000
     atom   22 type  2   force =     0.00000000    0.00000000    0.00000000
     atom   23 type  1   force =     0.00000000    0.00000000    0.00000000
     atom   24 type  1   force =     0.00000000    0.00000000    0.00000000
     atom   25 type  1   force =     0.00000000    0.00000000    0.00000000
     atom   26 type  1   force =     0.00000000    0.00000000    0.00000000
     atom   27 type  1   force =     0.00000000    0.00000000    0.00000000
     atom   28 type  1   force =     0.00000000    0.00000000    0.00000000
     atom   29 type  2   force =     0.00000000    0.00000000    0.00000000
     atom   30 type  2   force =     0.00000000    0.00000000    0.00000000
     atom   31 type  1   force =     0.00000000    0.00000000    0.00000000
     atom   32 type  1   force =     0.00000000    0.00000000    0.00000000
     atom   33 type  2   force =     0.00000000    0.00000000    0.00000000
     atom   34 type  2   force =     0.00000000    0.00000000    0.00000000
     atom   35 type  1   force =     0.00000000    0.00000000    0.00000000
     atom   36 type  1   force =     0.00000000    0.00000000    0.00000000
     atom   37 type  1   force =     0.00000000    0.00000000    0.00000000
     atom   38 type  1   force =     0.00000000    0.00000000    0.00000000
     atom   39 type  1   force =     0.00000000    0.00000000    0.00000000
     atom   40 type  1   force =     0.00000000    0.00000000    0.00000000
     atom   41 type  3   force =     0.00000000    0.00000000    0.00000000
     atom   42 type  3   force =     0.00000000    0.00000000    0.00000000
     atom   43 type  3   force =     0.00000000    0.00000000    0.00000000
     atom   44 type  3   force =     0.00000000    0.00000000    0.00000000
     atom   45 type  3   force =     0.00000000    0.00000000    0.00000000
     atom   46 type  3   force =     0.00000000    0.00000000    0.00000000
     atom   47 type  3   force =     0.00000000    0.00000000    0.00000000
     atom   48 type  3   force =     0.00000000    0.00000000    0.00000000
     atom   49 type  3   force =     0.00000000    0.00000000    0.00000000
     atom   50 type  3   force =     0.00000000    0.00000000    0.00000000
     The SCF correction term to forces
     atom    1 type  1   force =     0.00000009    0.00000062   -0.00000028
     atom    2 type  1   force =    -0.00000072    0.00000042   -0.00000091
     atom    3 type  1   force =     0.00000089   -0.00000167   -0.00000075
     atom    4 type  1   force =    -0.00000067   -0.00000110   -0.00000094
     atom    5 type  2   force =    -0.00000119   -0.00000102   -0.00000081
     atom    6 type  2   force =     0.00000107   -0.00000139   -0.00000007
     atom    7 type  1   force =    -0.00000049   -0.00000036    0.00000007
     atom    8 type  1   force =     0.00000054    0.00000062    0.00000043
     atom    9 type  2   force =     0.00000029    0.00000148   -0.00000032
     atom   10 type  2   force =    -0.00000027    0.00000089    0.00000024
     atom   11 type  1   force =    -0.00000075    0.00000071   -0.00000058
     atom   12 type  1   force =     0.00000100   -0.00000008   -0.00000024
     atom   13 type  1   force =     0.00000056   -0.00000024    0.00000025
     atom   14 type  1   force =    -0.00000049   -0.00000005    0.00000145
     atom   15 type  1   force =    -0.00000053    0.00000024   -0.00000020
     atom   16 type  1   force =     0.00000103    0.00000009    0.00000072
     atom   17 type  2   force =    -0.00000039    0.00000047    0.00000000
     atom   18 type  2   force =     0.00000047    0.00000056    0.00000000
     atom   19 type  1   force =     0.00000069   -0.00000128    0.00000000
     atom   20 type  1   force =    -0.00000065   -0.00000012    0.00000000
     atom   21 type  2   force =     0.00000026   -0.00000021    0.00000000
     atom   22 type  2   force =    -0.00000082   -0.00000029    0.00000000
     atom   23 type  1   force =     0.00000061    0.00000134    0.00000000
     atom   24 type  1   force =    -0.00000061    0.00000020    0.00000000
     atom   25 type  1   force =    -0.00000053    0.00000024    0.00000020
     atom   26 type  1   force =     0.00000103    0.00000009   -0.00000072
     atom   27 type  1   force =     0.00000056   -0.00000024   -0.00000025
     atom   28 type  1   force =    -0.00000049   -0.00000005   -0.00000145
     atom   29 type  2   force =    -0.00000119   -0.00000102    0.00000081
     atom   30 type  2   force =     0.00000107   -0.00000139    0.00000007
     atom   31 type  1   force =    -0.00000049   -0.00000036   -0.00000007
     atom   32 type  1   force =     0.00000054    0.00000062   -0.00000043
     atom   33 type  2   force =     0.00000029    0.00000148    0.00000033
     atom   34 type  2   force =    -0.00000027    0.00000089   -0.00000023
     atom   35 type  1   force =    -0.00000075    0.00000071    0.00000058
     atom   36 type  1   force =     0.00000100   -0.00000008    0.00000024
     atom   37 type  1   force =     0.00000089   -0.00000167    0.00000076
     atom   38 type  1   force =    -0.00000068   -0.00000110    0.00000094
     atom   39 type  1   force =     0.00000009    0.00000062    0.00000027
     atom   40 type  1   force =    -0.00000072    0.00000042    0.00000091
     atom   41 type  3   force =     0.00000004    0.00000008   -0.00000009
     atom   42 type  3   force =     0.00000004    0.00000008    0.00000009
     atom   43 type  3   force =     0.00000000    0.00000009   -0.00000020
     atom   44 type  3   force =     0.00000000    0.00000009    0.00000020
     atom   45 type  3   force =     0.00000002   -0.00000008   -0.00000012
     atom   46 type  3   force =     0.00000002   -0.00000007    0.00000011
     atom   47 type  3   force =    -0.00000006   -0.00000009   -0.00000018
     atom   48 type  3   force =    -0.00000006   -0.00000009    0.00000018
     atom   49 type  3   force =     0.00000006   -0.00000003   -0.00000002
     atom   50 type  3   force =     0.00000006   -0.00000003    0.00000002

     Total force =     0.000402     Total SCF correction =     0.000008
     Energy error            =      1.0E-07 Ry
     Gradient error          =      9.9E-05 Ry/Bohr

     bfgs converged in  54 scf cycles and  53 bfgs steps
     (criteria: energy <  1.0E-04 Ry, force <  1.0E-04 Ry/Bohr)

     End of BFGS Geometry Optimization

     Final energy             =   -3440.2238905628 Ry

     File /storage/home/mgm6007/ixd4/Maria/StrainJin_Files/RuO2-110-0-01234/RuO2-110-0-01234.bfgs deleted, as requested
Begin final coordinates

ATOMIC_POSITIONS (crystal)
O             0.0442760643        0.4361788104        0.2607874407
O             0.4623629503        0.4315443868        0.2652471715
O            -0.0058089762        0.0093878387        0.2981641585
O             0.4917012339        0.0043904591        0.3002854510
Ru            0.2450679399       -0.0075459304        0.3590308542
Ru            0.7402422482       -0.0089735586        0.3581498620
O             0.2530062671        0.3060692353        0.3628349963
O             0.7519720217        0.3057438831        0.3590118854
Ru            0.0033396171        0.4907258631        0.3587045918
Ru            0.5001625025        0.4928337557        0.3569788763
O             0.2511880478        0.6796684769        0.3532263552
O             0.7552546368        0.6783046523        0.3496528619
O            -0.0072200011       -0.0102693202        0.4110625337
O             0.4950656194       -0.0083754276        0.4111490866
O            -0.0016152149        0.5101624865        0.4458284346
O             0.5021130507        0.5110375077        0.4452412876
Ru           -0.0053250341        0.0082196831        0.5000010000
Ru            0.4949359694        0.0080252713        0.5000010000
O             0.2441459640        0.1948332041        0.5000010000
O             0.7442819382        0.1950420248        0.5000010000
Ru            0.2525325436        0.5092092432        0.5000010000
Ru            0.7499681844        0.5095343306        0.5000010000
O             0.2443482770        0.8228323059        0.5000010000
O             0.7446519578        0.8230519097        0.5000010000
O            -0.0016152149        0.5101624865        0.5541725654
O             0.5021130507        0.5110375077        0.5547597124
O            -0.0072200011       -0.0102693202        0.5889384663
O             0.4950656194       -0.0083754276        0.5888519134
Ru            0.2450679399       -0.0075459304        0.6409701458
Ru            0.7402422482       -0.0089735586        0.6418511380
O             0.2530062671        0.3060692353        0.6371660037
O             0.7519720217        0.3057438831        0.6409891146
Ru            0.0033396171        0.4907258631        0.6412964082
Ru            0.5001625025        0.4928337557        0.6430221237
O             0.2511880478        0.6796684769        0.6467746448
O             0.7552546368        0.6783046523        0.6503481381
O            -0.0058089762        0.0093878387        0.7018378415
O             0.4917012339        0.0043904591        0.6997165490
O             0.0442760643        0.4361788104        0.7392135593
O             0.4623629503        0.4315443868        0.7347538285
H             0.1972220983        0.4471745738        0.2558239580
H             0.1972220983        0.4471745738        0.7441760420
H             0.5706637997        0.4959578368        0.2406812465
H             0.5706637997        0.4959578368        0.7593187535
H             0.0172984353        0.2704717162        0.2620528700
H             0.0172984353        0.2704717162        0.7379471300
H             0.4896500984        0.1541238344        0.2789206976
H             0.4896500984        0.1541238344        0.7210793024
H            -0.0054423395        0.8902319337        0.2679077145
H            -0.0054423395        0.8902319337        0.7320922855
End final coordinates

     Writing all to output data dir /storage/home/mgm6007/ixd4/Maria/StrainJin_Files/RuO2-110-0-01234/RuO2-110-0-01234.save/

     General routines

     Parallel routines

     Environ routines

   This run was terminated on:   9:23:30  28Jul2023

   JOB DONE.