     Program PWSCF v.7.2 starts on 19Jul2023 at 11:40: 5
        Git branch: heads/qe-7.2
        Last git commit: b4c5e8deeb7d1863e7553a87b45f8d22c21926a5
        Last git commit date: Mon Mar 27 16:12:09 2023 +0000
        Last git commit subject: Merge branch 'merge_fix_hubbard' into 'develop'

     Reading input from RuO2-110-0-24.in

     Current dimensions of program PWSCF are:
     Max number of different atomic species (ntypx) = 10
     Max number of k-points (npk) =  40000
     Max angular momentum in pseudopotentials (lmaxx) =  4

     Reading input from environ.in:
     * Environ restarting
     * setting up water environment
     * using electronic solvent mode
     * setting boundary derivatives method to SCCS default

     file O.pbe-n-kjpaw_psl.0.1.UPF: wavefunction(s)  2P renormalized
     Message from routine setup:
     using ibrav=0 with symmetry is DISCOURAGED, use correct ibrav instead

     R & G space division:  proc/nbgrp/npool/nimage =      20
     Subspace diagonalization in iterative solution of the eigenvalue problem:
     one sub-group per band group will be used

     Using Slab Decomposition

     bravais-lattice index     =            0
     lattice parameter (alat)  =      12.1041  a.u.
     unit-cell volume          =    5954.5483 (a.u.)^3
     number of atoms/cell      =           44
     number of atomic types    =            3
     number of electrons       =       364.00
     number of Kohn-Sham states=          218
     kinetic-energy cutoff     =      50.0000  Ry
     charge density cutoff     =     500.0000  Ry
     scf convergence threshold =      1.0E-09
     mixing beta               =       0.7000
     number of iterations used =            8  local-TF  mixing
     energy convergence thresh.=      1.0E-04
     force convergence thresh. =      1.0E-04
     Exchange-correlation= PBE
                           (   1   4   3   4   0   0   0)
     nstep                     =          200

                                  Environ Setup Summary

          O. Andreussi, I. Dabo and N. Marzari, J. Chem. Phys. 136, 064102 (2012)

     in publications or presentations arising from this work.

     Parameters

     compensation onset threshold      =               0.1000E+00
     static permittivity               =                    78.30
     surface tension in input (dyn/cm) =                    47.90
     surface tension in internal units =               0.6153E-04
     external pressure in input (GPa)  =                    -0.36
     external pressure in inter. units =              -0.2447E-04

     Solvent Boundary

     solvent mode                      =               electronic
     derivatives method                =                    chain
     numerical core for derivatives    =                      fft
     switching function adopted        =                     SCCS
     density limit for vacuum region   =               0.5000E-02
     density limit for bulk solvent    =               0.1000E-03

     Electrostatic Setup

     electrostatic problem to solve    =              generalized
     numerical solver adopted          =                       cg
     type of auxiliary density adopted =                     none
     numerical core for poisson        =                      fft
     type of pbc corrections           =                parabolic
     numerical core for corrections    =                      1da

     celldm(1)=  12.104053  celldm(2)=   0.000000  celldm(3)=   0.000000
     celldm(4)=   0.000000  celldm(5)=   0.000000  celldm(6)=   0.000000

     crystal axes: (cart. coord. in units of alat)
               a(1) = (   1.000000   0.000000   0.000000 )
               a(2) = (   0.000000   0.971735   0.000000 )
               a(3) = (   0.000000   0.000000   3.455479 )

     reciprocal axes: (cart. coord. in units 2 pi/alat)
               b(1) = (  1.000000  0.000000  0.000000 )
               b(2) = (  0.000000  1.029087  0.000000 )
               b(3) = (  0.000000  0.000000  0.289395 )

     PseudoPot. # 1 for O  read from file:
     /gpfs/group/ixd4/default/Simon/pseudopotentials/materialscloud/SSSP_1.3.0_PBE_efficiency/O.pbe-n-kjpaw_psl.0.1.UPF
     MD5 check sum: 0234752ac141de4415c5fc33072bef88
     Pseudo is Projector augmented-wave + core cor, Zval =  6.0
     Generated using "atomic" code by A. Dal Corso  v.5.0.99 svn rev. 10869
     Shape of augmentation charge: BESSEL
     Using radial grid of 1095 points,  4 beta functions with:
                l(1) =   0
                l(2) =   0
                l(3) =   1
                l(4) =   1
     Q(r) pseudized with 0 coefficients

     PseudoPot. # 2 for Ru read from file:
     /gpfs/group/ixd4/default/Simon/pseudopotentials/materialscloud/SSSP_1.3.0_PBE_efficiency/Ru_ONCV_PBE-1.0.oncvpsp.upf
     MD5 check sum: be037bb81c227cfb9b1461a9f099f4bd
     Pseudo is Norm-conserving, Zval = 16.0
     Generated using ONCVPSP code by D. R. Hamann
     Using radial grid of 1458 points,  6 beta functions with:
                l(1) =   0
                l(2) =   0
                l(3) =   1
                l(4) =   1
                l(5) =   2
                l(6) =   2

     PseudoPot. # 3 for H  read from file:
     /gpfs/group/ixd4/default/Simon/pseudopotentials/materialscloud/SSSP_1.3.0_PBE_efficiency/H.pbe-rrkjus_psl.1.0.0.UPF
     MD5 check sum: f52b6d4d1c606e5624b1dc7b2218f220
     Pseudo is Ultrasoft, Zval =  1.0
     Generated using "atomic" code by A. Dal Corso  v.5.1
     Using radial grid of  929 points,  2 beta functions with:
                l(1) =   0
                l(2) =   0
     Q(r) pseudized with 0 coefficients

     atomic species   valence    mass     pseudopotential
        O              6.00    15.99940     O ( 1.00)
        Ru            16.00   101.07000     Ru( 1.00)
        H              1.00     1.00794     H ( 1.00)

      8 Sym. Ops., with inversion, found

   Cartesian axes

     site n.     atom                  positions (alat units)
         1           O   tau(   1) = (   0.0000000   0.4858677   0.9483198  )
         2           O   tau(   2) = (   0.5000000   0.4858677   0.9442726  )
         3           O   tau(   3) = (   0.0000000   0.0000000   1.0050095  )
         4           O   tau(   4) = (   0.5000000   0.0000000   1.0611188  )
         5           Ru  tau(   5) = (   0.2637543   0.0000000   1.2380637  )
         6           Ru  tau(   6) = (   0.7362457   0.0000000   1.2380637  )
         7           O   tau(   7) = (   0.2497652   0.3037201   1.2407654  )
         8           O   tau(   8) = (   0.7502348   0.3037201   1.2407654  )
         9           Ru  tau(   9) = (   0.0000000   0.4858677   1.2244140  )
        10           Ru  tau(  10) = (   0.5000000   0.4858677   1.2139410  )
        11           O   tau(  11) = (   0.2497652   0.6680152   1.2407654  )
        12           O   tau(  12) = (   0.7502348   0.6680152   1.2407654  )
        13           O   tau(  13) = (   0.0000000   0.0000000   1.4199670  )
        14           O   tau(  14) = (   0.5000000   0.0000000   1.4240869  )
        15           O   tau(  15) = (   0.0000000   0.4858677   1.5392116  )
        16           O   tau(  16) = (   0.5000000   0.4858677   1.5373541  )
        17           Ru  tau(  17) = (   0.0000000   0.0000000   1.7277432  )
        18           Ru  tau(  18) = (   0.5000000   0.0000000   1.7277432  )
        19           O   tau(  19) = (   0.2491165   0.1808565   1.7277432  )
        20           O   tau(  20) = (   0.7508835   0.1808565   1.7277432  )
        21           Ru  tau(  21) = (   0.2515136   0.4858677   1.7277432  )
        22           Ru  tau(  22) = (   0.7484864   0.4858677   1.7277432  )
        23           O   tau(  23) = (   0.2491165   0.7908799   1.7277432  )
        24           O   tau(  24) = (   0.7508835   0.7908799   1.7277432  )
        25           O   tau(  25) = (   0.0000000   0.4858677   1.9162714  )
        26           O   tau(  26) = (   0.5000000   0.4858677   1.9181288  )
        27           O   tau(  27) = (   0.0000000   0.0000000   2.0355160  )
        28           O   tau(  28) = (   0.5000000   0.0000000   2.0313960  )
        29           Ru  tau(  29) = (   0.2637543   0.0000000   2.2174193  )
        30           Ru  tau(  30) = (   0.7362457   0.0000000   2.2174193  )
        31           O   tau(  31) = (   0.2497652   0.3037201   2.2147175  )
        32           O   tau(  32) = (   0.7502348   0.3037201   2.2147175  )
        33           Ru  tau(  33) = (   0.0000000   0.4858677   2.2310689  )
        34           Ru  tau(  34) = (   0.5000000   0.4858677   2.2415419  )
        35           O   tau(  35) = (   0.2497652   0.6680152   2.2147175  )
        36           O   tau(  36) = (   0.7502348   0.6680152   2.2147175  )
        37           O   tau(  37) = (   0.0000000   0.0000000   2.4504770  )
        38           O   tau(  38) = (   0.5000000   0.0000000   2.3943676  )
        39           O   tau(  39) = (   0.0000000   0.4858677   2.5071631  )
        40           O   tau(  40) = (   0.5000000   0.4858677   2.5112104  )
        41           H   tau(  41) = (   0.0000000   0.1291196   0.9115854  )
        42           H   tau(  42) = (   0.0000000   0.1291196   2.5438941  )
        43           H   tau(  43) = (   0.0000000   0.8426158   0.9115854  )
        44           H   tau(  44) = (   0.0000000   0.8426158   2.5438941  )

     number of k points=     1  Marzari-Vanderbilt smearing, width (Ry)=  0.0300
                       cart. coord. in units 2pi/alat
        k(    1) = (   0.2500000   0.2572717   0.0000000), wk =   2.0000000

     Check: negative core charge=   -0.000001

     Initial potential from superposition of free atoms

     starting charge     363.9933, renormalised to     364.0000

     add environment contribution to local potential
     Polarization accuracy = 2.5E-12, # of iterations =  23

     negative rho (up, down):  3.676E-05 0.000E+00
     Starting wfcs are  236 randomized atomic wfcs
     Checking if some PAW data can be deallocated...

     Self-consistent Calculation

     iteration #  1     ecut=    50.00 Ry     beta= 0.70
     Davidson diagonalization with overlap
     ethr =  1.00E-02,  avg # of iterations =  2.0

     total energy              =   -3430.14608723 Ry
     estimated scf accuracy    <      10.26331353 Ry
     electrostatic embedding   =      -0.00166198 Ry
     cavitation energy         =       0.01987731 Ry
     PV energy                 =      -0.08453478 Ry
     correction to one-el term =     213.27038602 Ry

[...]

     negative rho (up, down):  4.255E-06 0.000E+00

[...]

     the potential shift due to the Gaussian-smeared nuclei is    -1.3065 ev

     End of self-consistent calculation

          k = 0.2500 0.2573 0.0000 ( 35510 PWs)   bands (ev):

   -78.0215 -78.0099 -77.9812 -77.9698 -77.1985 -77.1901 -77.1875 -77.1791
   -77.1313 -77.0727 -77.0528 -77.0479 -48.5338 -48.5223 -48.3743 -48.3629
   -48.0097 -47.9982 -47.9104 -47.8989 -47.6183 -47.6068 -47.5997 -47.5882
   -47.3895 -47.3826 -47.3784 -47.3715 -47.3584 -47.3204 -47.2728 -47.2635
   -47.2605 -47.2595 -47.1529 -47.1342 -47.1232 -47.0681 -47.0567 -47.0449
[...]
     atom    8 type  1   force =    -0.63245167    1.33065924   61.33249038
     atom    9 type  2   force =    -0.00000000    0.00000000  166.23682448
     atom   10 type  2   force =     0.00000000    0.00000000  171.23066733
     atom   11 type  1   force =     0.63245167   -1.33065924   61.33249038
     atom   12 type  1   force =    -0.63245167   -1.33065924   61.33249038
     atom   13 type  1   force =     0.00000000   -0.00000000   38.63526503
     atom   14 type  1   force =     0.00000000   -0.00000000   35.95036193
     atom   15 type  1   force =    -0.00000000   -0.00000000   25.98489400
     atom   16 type  1   force =     0.00000000    0.00000000   27.27372521
     atom   17 type  2   force =    -0.00000000    0.00000000   -0.00585024
     atom   18 type  2   force =     0.00000000    0.00000000   -0.00579189
     atom   19 type  1   force =     0.26960156   -1.83275512   -0.00242978
     atom   20 type  1   force =    -0.26960156   -1.83275512   -0.00242978
     atom   21 type  2   force =     0.31630696   -0.00000000   -0.00599144
     atom   22 type  2   force =    -0.31630696   -0.00000000   -0.00599144
     atom   23 type  1   force =     0.26959993    1.83238622   -0.00242978
     atom   24 type  1   force =    -0.26959993    1.83238622   -0.00242978
     atom   25 type  1   force =     0.00000000    0.00000000  -25.98668150
     atom   26 type  1   force =     0.00000000    0.00000000  -27.27549351
     atom   27 type  1   force =     0.00000000    0.00000000  -38.63705329
     atom   28 type  1   force =     0.00000000    0.00000000  -35.95208308
     atom   29 type  2   force =     6.06886038   -0.00000000 -167.59858310
     atom   30 type  2   force =    -6.06886038    0.00000000 -167.59858310
     atom   31 type  1   force =     0.63246054    1.33069882  -61.33490659
     atom   32 type  1   force =    -0.63246054    1.33069882  -61.33490659
     atom   33 type  2   force =    -0.00000000    0.00000000 -166.24256256
     atom   34 type  2   force =     0.00000000    0.00000000 -171.23640774
     atom   35 type  1   force =     0.63246054   -1.33069882  -61.33490659
     atom   36 type  1   force =    -0.63246054   -1.33069882  -61.33490659
     atom   37 type  1   force =    -0.00000000    0.00000000  -89.13001130
     atom   38 type  1   force =    -0.00000000    0.00000000  -92.42281881
     atom   39 type  1   force =    -0.00000000    0.00000000  -97.21737334
     atom   40 type  1   force =     0.00000000    0.00000000  -98.14826087
     atom   41 type  3   force =     0.00000000   -2.29586371   16.73103498
     atom   42 type  3   force =    -0.00000000   -2.29586371  -16.73103498
     atom   43 type  3   force =     0.00000000    2.29586371   16.73103498
     atom   44 type  3   force =    -0.00000000    2.29586371  -16.73103498
     The core correction contribution to forces
     atom    1 type  1   force =     0.00000000    0.00000000   -0.01062093
     atom    2 type  1   force =    -0.00000000   -0.00000000   -0.01054812
     atom    3 type  1   force =    -0.00000000    0.00000000    0.01298232
     atom    4 type  1   force =    -0.00000000   -0.00000000   -0.01113705
     atom    5 type  2   force =     0.00000000    0.00000000    0.00000000
     atom    6 type  2   force =     0.00000000    0.00000000    0.00000000
     atom    7 type  1   force =    -0.00009775   -0.00072820    0.00111500
     atom    8 type  1   force =     0.00009775   -0.00072820    0.00111500
     atom    9 type  2   force =     0.00000000    0.00000000    0.00000000
     atom   10 type  2   force =     0.00000000    0.00000000    0.00000000
     atom   11 type  1   force =    -0.00009775    0.00072820    0.00111500
     atom   12 type  1   force =     0.00009775    0.00072820    0.00111500
     atom   13 type  1   force =    -0.00000000    0.00000000   -0.00070021
     atom   14 type  1   force =     0.00000000   -0.00000000    0.00240141
     atom   15 type  1   force =    -0.00000000    0.00000000   -0.00192589
     atom   16 type  1   force =     0.00000000    0.00000000   -0.00339980
     atom   17 type  2   force =     0.00000000    0.00000000    0.00000000
     atom   18 type  2   force =     0.00000000    0.00000000    0.00000000
     atom   19 type  1   force =    -0.00034690    0.00017262   -0.00000194
     atom   20 type  1   force =     0.00034690    0.00017262   -0.00000194
     atom   21 type  2   force =     0.00000000    0.00000000    0.00000000
     atom   22 type  2   force =     0.00000000    0.00000000    0.00000000
     atom   23 type  1   force =    -0.00034691   -0.00017324   -0.00000194
     atom   24 type  1   force =     0.00034691   -0.00017324   -0.00000194
     atom   25 type  1   force =     0.00000000   -0.00000000    0.00192375
     atom   26 type  1   force =     0.00000000   -0.00000000    0.00339775
     atom   27 type  1   force =    -0.00000000   -0.00000000    0.00069805
     atom   28 type  1   force =     0.00000000   -0.00000000   -0.00240372
     atom   29 type  2   force =     0.00000000    0.00000000    0.00000000
     atom   30 type  2   force =     0.00000000    0.00000000    0.00000000
     atom   31 type  1   force =    -0.00009769   -0.00072809   -0.00111639
     atom   32 type  1   force =     0.00009769   -0.00072809   -0.00111639
     atom   33 type  2   force =     0.00000000    0.00000000    0.00000000
     atom   34 type  2   force =     0.00000000    0.00000000    0.00000000
     atom   35 type  1   force =    -0.00009769    0.00072809   -0.00111639
     atom   36 type  1   force =     0.00009769    0.00072809   -0.00111639
     atom   37 type  1   force =     0.00000000    0.00000000   -0.01298610
     atom   38 type  1   force =     0.00000000   -0.00000000    0.01113326
     atom   39 type  1   force =    -0.00000000   -0.00000000    0.01061884
     atom   40 type  1   force =     0.00000000    0.00000000    0.01054626
     atom   41 type  3   force =     0.00000000    0.00000000    0.00000000
     atom   42 type  3   force =     0.00000000    0.00000000    0.00000000
     atom   43 type  3   force =     0.00000000    0.00000000    0.00000000
     atom   44 type  3   force =     0.00000000    0.00000000    0.00000000
     The Hubbard contrib.    to forces
     atom    1 type  1   force =     0.00000000    0.00000000    0.00000000
     atom    2 type  1   force =     0.00000000    0.00000000    0.00000000
     atom    3 type  1   force =     0.00000000    0.00000000    0.00000000
     atom    4 type  1   force =     0.00000000    0.00000000    0.00000000
     atom    5 type  2   force =     0.00000000    0.00000000    0.00000000
     atom    6 type  2   force =     0.00000000    0.00000000    0.00000000
     atom    7 type  1   force =     0.00000000    0.00000000    0.00000000
     atom    8 type  1   force =     0.00000000    0.00000000    0.00000000
     atom    9 type  2   force =     0.00000000    0.00000000    0.00000000
     atom   10 type  2   force =     0.00000000    0.00000000    0.00000000
     atom   11 type  1   force =     0.00000000    0.00000000    0.00000000
     atom   12 type  1   force =     0.00000000    0.00000000    0.00000000
     atom   13 type  1   force =     0.00000000    0.00000000    0.00000000
     atom   14 type  1   force =     0.00000000    0.00000000    0.00000000
     atom   15 type  1   force =     0.00000000    0.00000000    0.00000000
     atom   16 type  1   force =     0.00000000    0.00000000    0.00000000
     atom   17 type  2   force =     0.00000000    0.00000000    0.00000000
     atom   18 type  2   force =     0.00000000    0.00000000    0.00000000
     atom   19 type  1   force =     0.00000000    0.00000000    0.00000000
     atom   20 type  1   force =     0.00000000    0.00000000    0.00000000
     atom   21 type  2   force =     0.00000000    0.00000000    0.00000000
     atom   22 type  2   force =     0.00000000    0.00000000    0.00000000
     atom   23 type  1   force =     0.00000000    0.00000000    0.00000000
     atom   24 type  1   force =     0.00000000    0.00000000    0.00000000
     atom   25 type  1   force =     0.00000000    0.00000000    0.00000000
     atom   26 type  1   force =     0.00000000    0.00000000    0.00000000
     atom   27 type  1   force =     0.00000000    0.00000000    0.00000000
     atom   28 type  1   force =     0.00000000    0.00000000    0.00000000
     atom   29 type  2   force =     0.00000000    0.00000000    0.00000000
     atom   30 type  2   force =     0.00000000    0.00000000    0.00000000
     atom   31 type  1   force =     0.00000000    0.00000000    0.00000000
     atom   32 type  1   force =     0.00000000    0.00000000    0.00000000
     atom   33 type  2   force =     0.00000000    0.00000000    0.00000000
     atom   34 type  2   force =     0.00000000    0.00000000    0.00000000
     atom   35 type  1   force =     0.00000000    0.00000000    0.00000000
     atom   36 type  1   force =     0.00000000    0.00000000    0.00000000
     atom   37 type  1   force =     0.00000000    0.00000000    0.00000000
     atom   38 type  1   force =     0.00000000    0.00000000    0.00000000
     atom   39 type  1   force =     0.00000000    0.00000000    0.00000000
     atom   40 type  1   force =     0.00000000    0.00000000    0.00000000
     atom   41 type  3   force =     0.00000000    0.00000000    0.00000000
     atom   42 type  3   force =     0.00000000    0.00000000    0.00000000
     atom   43 type  3   force =     0.00000000    0.00000000    0.00000000
     atom   44 type  3   force =     0.00000000    0.00000000    0.00000000
     The SCF correction term to forces
     atom    1 type  1   force =    -0.00000000   -0.00000000   -0.00000191
     atom    2 type  1   force =    -0.00000000    0.00000000   -0.00000171
     atom    3 type  1   force =    -0.00000000   -0.00000000   -0.00000152
     atom    4 type  1   force =     0.00000000   -0.00000000   -0.00000067
     atom    5 type  2   force =     0.00000103   -0.00000000   -0.00000123
     atom    6 type  2   force =    -0.00000103   -0.00000000   -0.00000123
     atom    7 type  1   force =     0.00000056   -0.00000072   -0.00000028
     atom    8 type  1   force =    -0.00000056   -0.00000072   -0.00000028
     atom    9 type  2   force =    -0.00000000    0.00000000   -0.00000127
     atom   10 type  2   force =     0.00000000    0.00000000   -0.00000171
     atom   11 type  1   force =     0.00000056    0.00000072   -0.00000028
     atom   12 type  1   force =    -0.00000056    0.00000072   -0.00000028
     atom   13 type  1   force =    -0.00000000   -0.00000000   -0.00000164
     atom   14 type  1   force =     0.00000000   -0.00000000   -0.00000093
     atom   15 type  1   force =     0.00000000    0.00000000   -0.00000089
     atom   16 type  1   force =     0.00000000    0.00000000   -0.00000129
     atom   17 type  2   force =    -0.00000000   -0.00000000    0.00000006
     atom   18 type  2   force =    -0.00000000   -0.00000000    0.00000006
     atom   19 type  1   force =     0.00000089   -0.00000039    0.00000002
     atom   20 type  1   force =    -0.00000089   -0.00000039    0.00000002
     atom   21 type  2   force =     0.00000112    0.00000000    0.00000006
     atom   22 type  2   force =    -0.00000112    0.00000000    0.00000006
     atom   23 type  1   force =     0.00000089    0.00000039    0.00000002
     atom   24 type  1   force =    -0.00000089    0.00000039    0.00000002
     atom   25 type  1   force =     0.00000000    0.00000000    0.00000094
     atom   26 type  1   force =    -0.00000000    0.00000000    0.00000134
     atom   27 type  1   force =    -0.00000000   -0.00000000    0.00000167
     atom   28 type  1   force =     0.00000000   -0.00000000    0.00000096
     atom   29 type  2   force =     0.00000102   -0.00000000    0.00000126
     atom   30 type  2   force =    -0.00000102   -0.00000000    0.00000126
     atom   31 type  1   force =     0.00000055   -0.00000072    0.00000029
     atom   32 type  1   force =    -0.00000055   -0.00000072    0.00000029
     atom   33 type  2   force =    -0.00000000    0.00000000    0.00000128
     atom   34 type  2   force =     0.00000000    0.00000000    0.00000173
     atom   35 type  1   force =     0.00000055    0.00000072    0.00000029
     atom   36 type  1   force =    -0.00000055    0.00000072    0.00000029
     atom   37 type  1   force =    -0.00000000    0.00000000    0.00000151
     atom   38 type  1   force =     0.00000000   -0.00000000    0.00000066
     atom   39 type  1   force =     0.00000000    0.00000000    0.00000189
     atom   40 type  1   force =     0.00000000    0.00000000    0.00000169
     atom   41 type  3   force =    -0.00000000   -0.00000005   -0.00000024
     atom   42 type  3   force =     0.00000000   -0.00000004    0.00000023
     atom   43 type  3   force =    -0.00000000    0.00000005   -0.00000024
     atom   44 type  3   force =    -0.00000000    0.00000004    0.00000023

     Total force =     0.000331     Total SCF correction =     0.000008
     Energy error            =      5.6E-07 Ry
     Gradient error          =      7.9E-05 Ry/Bohr

     bfgs converged in  21 scf cycles and  20 bfgs steps
     (criteria: energy <  1.0E-04 Ry, force <  1.0E-04 Ry/Bohr)

     End of BFGS Geometry Optimization

     Final energy             =   -3432.7121348166 Ry

     File /storage/home/mgm6007/ixd4/Maria/Strain0_Files/RuO2-110-0-24/RuO2-110-0-24.bfgs deleted, as requested
Begin final coordinates

ATOMIC_POSITIONS (crystal)
O             0.0000000000        0.5000000000        0.2740887260
O             0.5000000000        0.5000000000        0.2716922299
O             0.0000000000        0.0000000000        0.2894849908
O             0.5000000000        0.0000000000        0.3076652684
Ru            0.2594939029        0.0000000000        0.3581077225
Ru            0.7405060971       -0.0000000000        0.3581077225
O             0.2500807198        0.3085538163        0.3578244035
O             0.7499192802        0.3085538163        0.3578244035
Ru            0.0000000000        0.5000000000        0.3533767592
Ru            0.5000000000        0.5000000000        0.3496485590
O             0.2500807198        0.6914461837        0.3578244035
O             0.7499192802        0.6914461837        0.3578244035
O             0.0000000000        0.0000000000        0.4115712418
O             0.5000000000        0.0000000000        0.4124022344
O             0.0000000000        0.5000000000        0.4456005625
O             0.5000000000        0.5000000000        0.4426372532
Ru            0.0000000000        0.0000000000        0.5000010000
Ru            0.5000000000        0.0000000000        0.5000010000
O             0.2492173058        0.1899836002        0.5000010000
O             0.7507826942        0.1899836002        0.5000010000
Ru            0.2543488182        0.5000000000        0.5000010000
Ru            0.7456511818        0.5000000000        0.5000010000
O             0.2492173058        0.8100173998        0.5000010000
O             0.7507826942        0.8100173998        0.5000010000
O             0.0000000000        0.5000000000        0.5544004375
O             0.5000000000        0.5000000000        0.5573637468
O             0.0000000000        0.0000000000        0.5884297582
O             0.5000000000        0.0000000000        0.5875987656
Ru            0.2594939029       -0.0000000000        0.6418932775
Ru            0.7405060971        0.0000000000        0.6418932775
O             0.2500807198        0.3085538163        0.6421765965
O             0.7499192802        0.3085538163        0.6421765965
Ru            0.0000000000        0.5000000000        0.6466242408
Ru            0.5000000000        0.5000000000        0.6503524410
O             0.2500807198        0.6914461837        0.6421765965
O             0.7499192802        0.6914461837        0.6421765965
O             0.0000000000        0.0000000000        0.7105170092
O             0.5000000000        0.0000000000        0.6923367316
O             0.0000000000        0.5000000000        0.7259122740
O             0.5000000000        0.5000000000        0.7283087701
H             0.0000000000        0.1258741011        0.2623693831
H            -0.0000000000        0.1258741011        0.7376306169
H            -0.0000000000        0.8741258989        0.2623693831
H             0.0000000000        0.8741258989        0.7376306169
End final coordinates

     Writing all to output data dir /storage/home/mgm6007/ixd4/Maria/Strain0_Files/RuO2-110-0-24/RuO2-110-0-24.save/

     General routines

     Parallel routines

     Environ routines

   This run was terminated on:  13:42:53  20Jul2023

   JOB DONE.