     Program PWSCF v.7.2 starts on 26Jul2023 at 11:24:41
        Git branch: heads/qe-7.2
        Last git commit: b4c5e8deeb7d1863e7553a87b45f8d22c21926a5
        Last git commit date: Mon Mar 27 16:12:09 2023 +0000
        Last git commit subject: Merge branch 'merge_fix_hubbard' into 'develop'

     Reading input from RuO2-110-0-025.in

     Current dimensions of program PWSCF are:
     Max number of different atomic species (ntypx) = 10
     Max number of k-points (npk) =  40000
     Max angular momentum in pseudopotentials (lmaxx) =  4

     Reading input from environ.in:
     * Environ restarting
     * setting up water environment
     * using electronic solvent mode
     * setting boundary derivatives method to SCCS default

     file O.pbe-n-kjpaw_psl.0.1.UPF: wavefunction(s)  2P renormalized
     Message from routine setup:
     using ibrav=0 with symmetry is DISCOURAGED, use correct ibrav instead

     R & G space division:  proc/nbgrp/npool/nimage =      20
     Subspace diagonalization in iterative solution of the eigenvalue problem:
     one sub-group per band group will be used

     Using Slab Decomposition

     bravais-lattice index     =            0
     lattice parameter (alat)  =      12.3824  a.u.
     unit-cell volume          =    5825.9133 (a.u.)^3
     number of atoms/cell      =           46
     number of atomic types    =            3
     number of electrons       =       366.00
     number of Kohn-Sham states=          220
     kinetic-energy cutoff     =      50.0000  Ry
     charge density cutoff     =     500.0000  Ry
     scf convergence threshold =      1.0E-09
     mixing beta               =       0.7000
     number of iterations used =            8  local-TF  mixing
     energy convergence thresh.=      1.0E-04
     force convergence thresh. =      1.0E-04
     Exchange-correlation= PBE
                           (   1   4   3   4   0   0   0)
     nstep                     =          200

                                  Environ Setup Summary

          O. Andreussi, I. Dabo and N. Marzari, J. Chem. Phys. 136, 064102 (2012)

     in publications or presentations arising from this work.

     Parameters

     compensation onset threshold      =               0.1000E+00
     static permittivity               =                    78.30
     surface tension in input (dyn/cm) =                    47.90
     surface tension in internal units =               0.6153E-04
     external pressure in input (GPa)  =                    -0.36
     external pressure in inter. units =              -0.2447E-04

     Solvent Boundary

     solvent mode                      =               electronic
     derivatives method                =                    chain
     numerical core for derivatives    =                      fft
     switching function adopted        =                     SCCS
     density limit for vacuum region   =               0.5000E-02
     density limit for bulk solvent    =               0.1000E-03

     Electrostatic Setup

     electrostatic problem to solve    =              generalized
     numerical solver adopted          =                       cg
     type of auxiliary density adopted =                     none
     numerical core for poisson        =                      fft
     type of pbc corrections           =                parabolic
     numerical core for corrections    =                      1da

     celldm(1)=  12.382447  celldm(2)=   0.000000  celldm(3)=   0.000000
     celldm(4)=   0.000000  celldm(5)=   0.000000  celldm(6)=   0.000000

     crystal axes: (cart. coord. in units of alat)
               a(1) = (   1.000000   0.000000   0.000000 )
               a(2) = (   0.000000   0.908473   0.000000 )
               a(3) = (   0.000000   0.000000   3.377790 )

     reciprocal axes: (cart. coord. in units 2 pi/alat)
               b(1) = (  1.000000  0.000000  0.000000 )
               b(2) = (  0.000000  1.100748  0.000000 )
               b(3) = (  0.000000  0.000000  0.296052 )

     PseudoPot. # 1 for O  read from file:
     /gpfs/group/ixd4/default/Simon/pseudopotentials/materialscloud/SSSP_1.3.0_PBE_efficiency/O.pbe-n-kjpaw_psl.0.1.UPF
     MD5 check sum: 0234752ac141de4415c5fc33072bef88
     Pseudo is Projector augmented-wave + core cor, Zval =  6.0
     Generated using "atomic" code by A. Dal Corso  v.5.0.99 svn rev. 10869
     Shape of augmentation charge: BESSEL
     Using radial grid of 1095 points,  4 beta functions with:
                l(1) =   0
                l(2) =   0
                l(3) =   1
                l(4) =   1
     Q(r) pseudized with 0 coefficients

     PseudoPot. # 2 for Ru read from file:
     /gpfs/group/ixd4/default/Simon/pseudopotentials/materialscloud/SSSP_1.3.0_PBE_efficiency/Ru_ONCV_PBE-1.0.oncvpsp.upf
     MD5 check sum: be037bb81c227cfb9b1461a9f099f4bd
     Pseudo is Norm-conserving, Zval = 16.0
     Generated using ONCVPSP code by D. R. Hamann
     Using radial grid of 1458 points,  6 beta functions with:
                l(1) =   0
                l(2) =   0
                l(3) =   1
                l(4) =   1
                l(5) =   2
                l(6) =   2

     PseudoPot. # 3 for H  read from file:
     /gpfs/group/ixd4/default/Simon/pseudopotentials/materialscloud/SSSP_1.3.0_PBE_efficiency/H.pbe-rrkjus_psl.1.0.0.UPF
     MD5 check sum: f52b6d4d1c606e5624b1dc7b2218f220
     Pseudo is Ultrasoft, Zval =  1.0
     Generated using "atomic" code by A. Dal Corso  v.5.1
     Using radial grid of  929 points,  2 beta functions with:
                l(1) =   0
                l(2) =   0
     Q(r) pseudized with 0 coefficients

     atomic species   valence    mass     pseudopotential
        O              6.00    15.99940     O ( 1.00)
        Ru            16.00   101.07000     Ru( 1.00)
        H              1.00     1.00794     H ( 1.00)

      2 Sym. Ops. (no inversion) found

   Cartesian axes

     site n.     atom                  positions (alat units)
         1           O   tau(   1) = (   0.0095699   0.4154037   0.9150510  )
         2           O   tau(   2) = (   0.4788182   0.4513515   0.9227369  )
         3           O   tau(   3) = (  -0.0006375   0.0123116   1.0146875  )
         4           O   tau(   4) = (   0.4974963  -0.0028887   1.0247250  )
         5           Ru  tau(   5) = (   0.2484214  -0.0034276   1.2123890  )
         6           Ru  tau(   6) = (   0.7485081  -0.0033902   1.2104460  )
         7           O   tau(   7) = (   0.2494148   0.2712918   1.2188891  )
         8           O   tau(   8) = (   0.7495469   0.2741910   1.2093915  )
         9           Ru  tau(   9) = (   0.0006120   0.4512267   1.2105243  )
        10           Ru  tau(  10) = (   0.5019652   0.4482531   1.1851328  )
        11           O   tau(  11) = (   0.2403653   0.6316663   1.2040528  )
        12           O   tau(  12) = (   0.7568314   0.6273441   1.1992226  )
        13           O   tau(  13) = (  -0.0035577  -0.0020209   1.3887543  )
        14           O   tau(  14) = (   0.5004145  -0.0078760   1.3920037  )
        15           O   tau(  15) = (   0.0000326   0.4544332   1.5075042  )
        16           O   tau(  16) = (   0.4968152   0.4557665   1.4880461  )
        17           Ru  tau(  17) = (  -0.0054068  -0.0011008   1.6888985  )
        18           Ru  tau(  18) = (   0.5015240   0.0000428   1.6888985  )
        19           O   tau(  19) = (   0.2501320   0.1725152   1.6888985  )
        20           O   tau(  20) = (   0.7459413   0.1795983   1.6888985  )
        21           Ru  tau(  21) = (   0.2557099   0.4548331   1.6888985  )
        22           Ru  tau(  22) = (   0.7435521   0.4543420   1.6888985  )
        23           O   tau(  23) = (   0.2483498   0.7357286   1.6888985  )
        24           O   tau(  24) = (   0.7480089   0.7281963   1.6888985  )
        25           O   tau(  25) = (   0.0000326   0.4544332   1.8702895  )
        26           O   tau(  26) = (   0.4968152   0.4557665   1.8897476  )
        27           O   tau(  27) = (  -0.0035577  -0.0020209   1.9890394  )
        28           O   tau(  28) = (   0.5004145  -0.0078760   1.9857900  )
        29           Ru  tau(  29) = (   0.2484214  -0.0034276   2.1654047  )
        30           Ru  tau(  30) = (   0.7485081  -0.0033902   2.1673477  )
        31           O   tau(  31) = (   0.2494148   0.2712918   2.1589046  )
        32           O   tau(  32) = (   0.7495469   0.2741910   2.1684022  )
        33           Ru  tau(  33) = (   0.0006120   0.4512267   2.1672694  )
        34           Ru  tau(  34) = (   0.5019652   0.4482531   2.1926609  )
        35           O   tau(  35) = (   0.2403653   0.6316663   2.1737409  )
        36           O   tau(  36) = (   0.7568314   0.6273441   2.1785711  )
        37           O   tau(  37) = (  -0.0006375   0.0123116   2.3631096  )
        38           O   tau(  38) = (   0.4974963  -0.0028887   2.3530721  )
        39           O   tau(  39) = (   0.0095699   0.4154037   2.4627427  )
        40           O   tau(  40) = (   0.4788182   0.4513515   2.4550568  )
        41           H   tau(  41) = (   0.1533998   0.4368196   0.8663468  )
        42           H   tau(  42) = (   0.1533998   0.4368196   2.5114435  )
        43           H   tau(  43) = (  -0.0003164   0.1299899   0.9377607  )
        44           H   tau(  44) = (  -0.0003164   0.1299899   2.4400297  )
        45           H   tau(  45) = (   0.4960295   0.8652604   0.8824542  )
        46           H   tau(  46) = (   0.4960295   0.8652604   2.4953361  )

     number of k points=     2  Marzari-Vanderbilt smearing, width (Ry)=  0.0300
                       cart. coord. in units 2pi/alat
        k(    1) = (   0.2500000   0.2751871   0.0000000), wk =   1.0000000
        k(    2) = (  -0.2500000   0.2751871   0.0000000), wk =   1.0000000

     Check: negative core charge=   -0.000001

     Initial potential from superposition of free atoms

     starting charge     365.9933, renormalised to     366.0000

     add environment contribution to local potential
     Polarization accuracy = 2.3E-12, # of iterations =  26

     negative rho (up, down):  3.227E-05 0.000E+00
     Starting wfcs are  238 randomized atomic wfcs
     Checking if some PAW data can be deallocated...

     Self-consistent Calculation

     iteration #  1     ecut=    50.00 Ry     beta= 0.70
     Davidson diagonalization with overlap
     ethr =  1.00E-02,  avg # of iterations =  2.0

     negative rho (up, down):  1.615E-08 0.000E+00

     total energy              =   -3432.73007731 Ry
     estimated scf accuracy    <       9.65157311 Ry
     electrostatic embedding   =      -0.00177045 Ry
     cavitation energy         =       0.01951031 Ry
     PV energy                 =      -0.08406099 Ry
     correction to one-el term =     220.81482984 Ry

[...]

     the potential shift due to the Gaussian-smeared nuclei is    -1.3426 ev

     End of self-consistent calculation

          k = 0.2500 0.2752 0.0000 ( 34780 PWs)   bands (ev):

   -78.0167 -78.0033 -77.4825 -77.4698 -77.3715 -77.3587 -77.2892 -77.2804
   -77.2673 -77.2539 -77.1305 -77.0331 -48.5561 -48.5427 -48.0354 -48.0226
[...]
     atom   18 type  2   force =     0.33059968   -0.72485286   -0.00585223
     atom   19 type  1   force =    -0.14156006   -0.83676447   -0.00245898
     atom   20 type  1   force =     0.14077355   -0.85256162   -0.00246410
     atom   21 type  2   force =    -1.57378056    0.08378115   -0.00604551
     atom   22 type  2   force =     1.57100735    0.14692274   -0.00605571
     atom   23 type  1   force =    -0.15130588    0.87729116   -0.00246255
     atom   24 type  1   force =     0.17224904    0.86882120   -0.00246477
     atom   25 type  1   force =    -0.06367664   -0.24817212  -25.35532433
     atom   26 type  1   force =    -0.31571344   -0.28176111  -27.25660516
     atom   27 type  1   force =     0.01367704    0.39472164  -38.56151181
     atom   28 type  1   force =    -0.12317199    0.47191386  -38.55655002
     atom   29 type  2   force =    -0.19297143    1.07299562 -171.03713226
     atom   30 type  2   force =     0.40915630    1.20406855 -171.47963119
     atom   31 type  1   force =    -0.74639252   -0.04689530  -60.26706167
     atom   32 type  1   force =     0.50196737    0.01769350  -62.05198746
     atom   33 type  2   force =     0.74560256   -1.86402044 -170.55047829
     atom   34 type  2   force =    -0.61575254   -1.19546009 -175.23574305
     atom   35 type  1   force =    -0.60412508   -0.24942357  -66.26350398
     atom   36 type  1   force =     0.33876013   -0.40202864  -66.95012209
     atom   37 type  1   force =     0.13232929    2.20062829  -92.77246551
     atom   38 type  1   force =    -0.15054638    0.13142887  -91.98484539
     atom   39 type  1   force =     1.46811390   -0.11854036  -95.58956125
     atom   40 type  1   force =    -0.06261641   -0.05315666 -100.12432385
     atom   41 type  3   force =    -2.66745456   -0.77202029   16.49145731
     atom   42 type  3   force =    -2.66745456   -0.77202029  -16.49145731
     atom   43 type  3   force =     0.05784930   -1.56514325   16.90332283
     atom   44 type  3   force =     0.05784930   -1.56514325  -16.90332283
     atom   45 type  3   force =    -0.01314012    0.40818943   18.42030059
     atom   46 type  3   force =    -0.01314012    0.40818943  -18.42030059
     The core correction contribution to forces
     atom    1 type  1   force =    -0.01705166   -0.00361034   -0.00355785
     atom    2 type  1   force =    -0.00014556   -0.00025210   -0.01039284
     atom    3 type  1   force =    -0.00001908   -0.01330795   -0.00229200
     atom    4 type  1   force =     0.00017322    0.00261474    0.00918514
     atom    5 type  2   force =     0.00000000    0.00000000    0.00000000
     atom    6 type  2   force =     0.00000000    0.00000000    0.00000000
     atom    7 type  1   force =    -0.00057785   -0.00003879    0.00184776
     atom    8 type  1   force =     0.00114146   -0.00000089    0.00129717
     atom    9 type  2   force =     0.00000000    0.00000000    0.00000000
     atom   10 type  2   force =     0.00000000    0.00000000    0.00000000
     atom   11 type  1   force =    -0.00014086    0.00017046   -0.00042535
     atom   12 type  1   force =     0.00067715    0.00026881   -0.00078288
     atom   13 type  1   force =     0.00012759   -0.00006382    0.00003215
     atom   14 type  1   force =     0.00015213   -0.00070491   -0.00028697
     atom   15 type  1   force =     0.00066233    0.00054212    0.00032206
     atom   16 type  1   force =     0.00043605    0.00010719   -0.00269648
     atom   17 type  2   force =     0.00000000    0.00000000    0.00000000
     atom   18 type  2   force =     0.00000000    0.00000000    0.00000000
     atom   19 type  1   force =    -0.00058634   -0.00053096   -0.00000201
     atom   20 type  1   force =    -0.00016865   -0.00052524   -0.00000204
     atom   21 type  2   force =     0.00000000    0.00000000    0.00000000
     atom   22 type  2   force =     0.00000000    0.00000000    0.00000000
     atom   23 type  1   force =    -0.00046728    0.00058677   -0.00000193
     atom   24 type  1   force =    -0.00031654    0.00052677   -0.00000196
     atom   25 type  1   force =     0.00066226    0.00054230   -0.00032433
     atom   26 type  1   force =     0.00043603    0.00010715    0.00269441
     atom   27 type  1   force =     0.00012759   -0.00006389   -0.00003437
     atom   28 type  1   force =     0.00015214   -0.00070507    0.00028476
     atom   29 type  2   force =     0.00000000    0.00000000    0.00000000
     atom   30 type  2   force =     0.00000000    0.00000000    0.00000000
     atom   31 type  1   force =    -0.00057785   -0.00003877   -0.00184956
     atom   32 type  1   force =     0.00114142   -0.00000079   -0.00129905
     atom   33 type  2   force =     0.00000000    0.00000000    0.00000000
     atom   34 type  2   force =     0.00000000    0.00000000    0.00000000
     atom   35 type  1   force =    -0.00014074    0.00017038    0.00042335
     atom   36 type  1   force =     0.00067706    0.00026869    0.00078093
     atom   37 type  1   force =    -0.00001906   -0.01330983    0.00228832
     atom   38 type  1   force =     0.00017320    0.00261516   -0.00919091
     atom   39 type  1   force =    -0.01705245   -0.00361037    0.00355538
     atom   40 type  1   force =    -0.00014573   -0.00025209    0.01039103
     atom   41 type  3   force =     0.00000000    0.00000000    0.00000000
     atom   42 type  3   force =     0.00000000    0.00000000    0.00000000
     atom   43 type  3   force =     0.00000000    0.00000000    0.00000000
     atom   44 type  3   force =     0.00000000    0.00000000    0.00000000
     atom   45 type  3   force =     0.00000000    0.00000000    0.00000000
     atom   46 type  3   force =     0.00000000    0.00000000    0.00000000
     The Hubbard contrib.    to forces
     atom    1 type  1   force =     0.00000000    0.00000000    0.00000000
     atom    2 type  1   force =     0.00000000    0.00000000    0.00000000
     atom    3 type  1   force =     0.00000000    0.00000000    0.00000000
     atom    4 type  1   force =     0.00000000    0.00000000    0.00000000
     atom    5 type  2   force =     0.00000000    0.00000000    0.00000000
     atom    6 type  2   force =     0.00000000    0.00000000    0.00000000
     atom    7 type  1   force =     0.00000000    0.00000000    0.00000000
     atom    8 type  1   force =     0.00000000    0.00000000    0.00000000
     atom    9 type  2   force =     0.00000000    0.00000000    0.00000000
     atom   10 type  2   force =     0.00000000    0.00000000    0.00000000
     atom   11 type  1   force =     0.00000000    0.00000000    0.00000000
     atom   12 type  1   force =     0.00000000    0.00000000    0.00000000
     atom   13 type  1   force =     0.00000000    0.00000000    0.00000000
     atom   14 type  1   force =     0.00000000    0.00000000    0.00000000
     atom   15 type  1   force =     0.00000000    0.00000000    0.00000000
     atom   16 type  1   force =     0.00000000    0.00000000    0.00000000
     atom   17 type  2   force =     0.00000000    0.00000000    0.00000000
     atom   18 type  2   force =     0.00000000    0.00000000    0.00000000
     atom   19 type  1   force =     0.00000000    0.00000000    0.00000000
     atom   20 type  1   force =     0.00000000    0.00000000    0.00000000
     atom   21 type  2   force =     0.00000000    0.00000000    0.00000000
     atom   22 type  2   force =     0.00000000    0.00000000    0.00000000
     atom   23 type  1   force =     0.00000000    0.00000000    0.00000000
     atom   24 type  1   force =     0.00000000    0.00000000    0.00000000
     atom   25 type  1   force =     0.00000000    0.00000000    0.00000000
     atom   26 type  1   force =     0.00000000    0.00000000    0.00000000
     atom   27 type  1   force =     0.00000000    0.00000000    0.00000000
     atom   28 type  1   force =     0.00000000    0.00000000    0.00000000
     atom   29 type  2   force =     0.00000000    0.00000000    0.00000000
     atom   30 type  2   force =     0.00000000    0.00000000    0.00000000
     atom   31 type  1   force =     0.00000000    0.00000000    0.00000000
     atom   32 type  1   force =     0.00000000    0.00000000    0.00000000
     atom   33 type  2   force =     0.00000000    0.00000000    0.00000000
     atom   34 type  2   force =     0.00000000    0.00000000    0.00000000
     atom   35 type  1   force =     0.00000000    0.00000000    0.00000000
     atom   36 type  1   force =     0.00000000    0.00000000    0.00000000
     atom   37 type  1   force =     0.00000000    0.00000000    0.00000000
     atom   38 type  1   force =     0.00000000    0.00000000    0.00000000
     atom   39 type  1   force =     0.00000000    0.00000000    0.00000000
     atom   40 type  1   force =     0.00000000    0.00000000    0.00000000
     atom   41 type  3   force =     0.00000000    0.00000000    0.00000000
     atom   42 type  3   force =     0.00000000    0.00000000    0.00000000
     atom   43 type  3   force =     0.00000000    0.00000000    0.00000000
     atom   44 type  3   force =     0.00000000    0.00000000    0.00000000
     atom   45 type  3   force =     0.00000000    0.00000000    0.00000000
     atom   46 type  3   force =     0.00000000    0.00000000    0.00000000
     The SCF correction term to forces
     atom    1 type  1   force =     0.00000009    0.00000016    0.00000044
     atom    2 type  1   force =    -0.00000001    0.00000069    0.00000082
     atom    3 type  1   force =     0.00000012   -0.00000052    0.00000100
     atom    4 type  1   force =    -0.00000015   -0.00000073    0.00000072
     atom    5 type  2   force =     0.00000098   -0.00000080    0.00000206
     atom    6 type  2   force =    -0.00000096   -0.00000073    0.00000221
     atom    7 type  1   force =     0.00000066   -0.00000033    0.00000078
     atom    8 type  1   force =    -0.00000072   -0.00000045    0.00000094
     atom    9 type  2   force =     0.00000025    0.00000066    0.00000222
     atom   10 type  2   force =    -0.00000028    0.00000096    0.00000188
     atom   11 type  1   force =     0.00000073    0.00000050    0.00000047
     atom   12 type  1   force =    -0.00000063    0.00000058    0.00000052
     atom   13 type  1   force =     0.00000012   -0.00000011    0.00000070
     atom   14 type  1   force =    -0.00000009   -0.00000033    0.00000100
     atom   15 type  1   force =     0.00000034    0.00000021    0.00000105
     atom   16 type  1   force =    -0.00000018    0.00000046    0.00000089
     atom   17 type  2   force =     0.00000030    0.00000010    0.00000000
     atom   18 type  2   force =    -0.00000033   -0.00000005    0.00000000
     atom   19 type  1   force =     0.00000077    0.00000012    0.00000000
     atom   20 type  1   force =    -0.00000073   -0.00000011    0.00000000
     atom   21 type  2   force =     0.00000104   -0.00000003    0.00000000
     atom   22 type  2   force =    -0.00000134   -0.00000005    0.00000000
     atom   23 type  1   force =     0.00000071    0.00000016    0.00000000
     atom   24 type  1   force =    -0.00000072    0.00000038    0.00000000
     atom   25 type  1   force =     0.00000034    0.00000021   -0.00000105
     atom   26 type  1   force =    -0.00000018    0.00000046   -0.00000088
     atom   27 type  1   force =     0.00000012   -0.00000011   -0.00000070
     atom   28 type  1   force =    -0.00000009   -0.00000033   -0.00000100
     atom   29 type  2   force =     0.00000099   -0.00000080   -0.00000206
     atom   30 type  2   force =    -0.00000096   -0.00000074   -0.00000221
     atom   31 type  1   force =     0.00000066   -0.00000033   -0.00000078
     atom   32 type  1   force =    -0.00000072   -0.00000045   -0.00000094
     atom   33 type  2   force =     0.00000025    0.00000066   -0.00000222
     atom   34 type  2   force =    -0.00000028    0.00000096   -0.00000189
     atom   35 type  1   force =     0.00000073    0.00000050   -0.00000047
     atom   36 type  1   force =    -0.00000063    0.00000058   -0.00000052
     atom   37 type  1   force =     0.00000012   -0.00000052   -0.00000100
     atom   38 type  1   force =    -0.00000015   -0.00000073   -0.00000072
     atom   39 type  1   force =     0.00000009    0.00000016   -0.00000044
     atom   40 type  1   force =    -0.00000001    0.00000069   -0.00000082
     atom   41 type  3   force =     0.00000008    0.00000005    0.00000008
     atom   42 type  3   force =     0.00000008    0.00000005   -0.00000008
     atom   43 type  3   force =     0.00000002   -0.00000007    0.00000011
     atom   44 type  3   force =     0.00000002   -0.00000007   -0.00000011
     atom   45 type  3   force =    -0.00000002   -0.00000008    0.00000015
     atom   46 type  3   force =    -0.00000002   -0.00000008   -0.00000015

     Total force =     0.000386     Total SCF correction =     0.000009
     Energy error            =      2.5E-07 Ry
     Gradient error          =      9.5E-05 Ry/Bohr

     bfgs converged in  60 scf cycles and  59 bfgs steps
     (criteria: energy <  1.0E-04 Ry, force <  1.0E-04 Ry/Bohr)

     End of BFGS Geometry Optimization

     Final energy             =   -3435.1483270996 Ry

     File /storage/home/mgm6007/ixd4/Maria/StrainJin_Files/RuO2-110-0-025/RuO2-110-0-025.bfgs deleted, as requested
Begin final coordinates

ATOMIC_POSITIONS (crystal)
O             0.0044193499        0.4380891120        0.2689913457
O             0.4862728456        0.4868861926        0.2725840281
O            -0.0009713597        0.0053608868        0.3012008898
O             0.4981148762       -0.0019208839        0.3046284381
Ru            0.2483688176       -0.0051201393        0.3588403341
Ru            0.7489300757       -0.0053329270        0.3585781150
O             0.2501479428        0.3066037318        0.3624439998
O             0.7506377629        0.3068841233        0.3600404259
Ru            0.0007689536        0.4939939413        0.3576827998
Ru            0.5018304857        0.4939034109        0.3507478964
O             0.2430292595        0.6848775676        0.3544539401
O             0.7567014039        0.6829606032        0.3537881578
O            -0.0025965219       -0.0054790586        0.4110410482
O             0.4989936598       -0.0089993966        0.4117532536
O             0.0034103335        0.5043416710        0.4462432831
O             0.5023092414        0.5057395018        0.4427015629
Ru           -0.0037085802        0.0025120029        0.5000010000
Ru            0.4963788624        0.0033710942        0.5000010000
O             0.2444086800        0.1898770407        0.5000010000
O             0.7440360768        0.1900782785        0.5000010000
Ru            0.2582424867        0.5037777573        0.5000010000
Ru            0.7538110479        0.5036201800        0.5000010000
O             0.2444998405        0.8172903444        0.5000010000
O             0.7444590830        0.8169303844        0.5000010000
O             0.0034103335        0.5043416710        0.5537577169
O             0.5023092414        0.5057395018        0.5572994371
O            -0.0025965219       -0.0054790586        0.5889599518
O             0.4989936598       -0.0089993966        0.5882477464
Ru            0.2483688176       -0.0051201393        0.6411606659
Ru            0.7489300757       -0.0053329270        0.6414228850
O             0.2501479428        0.3066037318        0.6375570002
O             0.7506377629        0.3068841233        0.6399605741
Ru            0.0007689536        0.4939939413        0.6423182002
Ru            0.5018304857        0.4939034109        0.6492531036
O             0.2430292595        0.6848775676        0.6455470599
O             0.7567014039        0.6829606032        0.6462128422
O            -0.0009713597        0.0053608868        0.6988011102
O             0.4981148762       -0.0019208839        0.6953735619
O             0.0044193499        0.4380891120        0.7310096543
O             0.4862728456        0.4868861926        0.7274169719
H             0.1396952782        0.4733598638        0.2527097678
H             0.1396952782        0.4733598638        0.7472902322
H            -0.0007862934        0.1520856518        0.2785399360
H            -0.0007862934        0.1520856518        0.7214600640
H             0.4972951401        0.9780386068        0.2608619707
H             0.4972951401        0.9780386068        0.7391380293
End final coordinates

     Writing all to output data dir /storage/home/mgm6007/ixd4/Maria/StrainJin_Files/RuO2-110-0-025/RuO2-110-0-025.save/

     General routines

     Parallel routines

     Environ routines

   This run was terminated on:  10:44:22  28Jul2023

   JOB DONE.