     Program PWSCF v.7.2 starts on 21Jul2023 at 17: 1:44
        Git branch: heads/qe-7.2
        Last git commit: b4c5e8deeb7d1863e7553a87b45f8d22c21926a5
        Last git commit date: Mon Mar 27 16:12:09 2023 +0000
        Last git commit subject: Merge branch 'merge_fix_hubbard' into 'develop'

     Reading input from RuO2-110-0-0.in

     Current dimensions of program PWSCF are:
     Max number of different atomic species (ntypx) = 10
     Max number of k-points (npk) =  40000
     Max angular momentum in pseudopotentials (lmaxx) =  4

     Reading input from environ.in:
     * Environ restarting
     * setting up water environment
     * using electronic solvent mode
     * setting boundary derivatives method to SCCS default

     File /storage/home/mgm6007/ixd4/Maria/Strain2_Files/RuO2-110-0-0/RuO2-110-0-0.update deleted, as requested

     File /storage/home/mgm6007/ixd4/Maria/Strain2_Files/RuO2-110-0-0/RuO2-110-0-0.bfgs deleted, as requested
     file O.pbe-n-kjpaw_psl.0.1.UPF: wavefunction(s)  2P renormalized
     Message from routine setup:
     using ibrav=0 with symmetry is DISCOURAGED, use correct ibrav instead

     R & G space division:  proc/nbgrp/npool/nimage =      20
     Subspace diagonalization in iterative solution of the eigenvalue problem:
     one sub-group per band group will be used

     Using Slab Decomposition

     bravais-lattice index     =            0
     lattice parameter (alat)  =      12.2467  a.u.
     unit-cell volume          =    5883.2137 (a.u.)^3
     number of atoms/cell      =           42
     number of atomic types    =            3
     number of electrons       =       362.00
     number of Kohn-Sham states=          217
     kinetic-energy cutoff     =      50.0000  Ry
     charge density cutoff     =     500.0000  Ry
     scf convergence threshold =      1.0E-09
     mixing beta               =       0.7000
     number of iterations used =            8  local-TF  mixing
     energy convergence thresh.=      1.0E-04
     force convergence thresh. =      1.0E-04
     Exchange-correlation= PBE
                           (   1   4   3   4   0   0   0)
     nstep                     =          200

                                  Environ Setup Summary

          O. Andreussi, I. Dabo and N. Marzari, J. Chem. Phys. 136, 064102 (2012)

     in publications or presentations arising from this work.

     Parameters

     compensation onset threshold      =               0.1000E+00
     static permittivity               =                    78.30
     surface tension in input (dyn/cm) =                    47.90
     surface tension in internal units =               0.6153E-04
     external pressure in input (GPa)  =                    -0.36
     external pressure in inter. units =              -0.2447E-04

     Solvent Boundary

     solvent mode                      =               electronic
     derivatives method                =                    chain
     numerical core for derivatives    =                      fft
     switching function adopted        =                     SCCS
     density limit for vacuum region   =               0.5000E-02
     density limit for bulk solvent    =               0.1000E-03

     Electrostatic Setup

     electrostatic problem to solve    =              generalized
     numerical solver adopted          =                       cg
     type of auxiliary density adopted =                     none
     numerical core for poisson        =                      fft
     type of pbc corrections           =                parabolic
     numerical core for corrections    =                      1da

     celldm(1)=  12.246684  celldm(2)=   0.000000  celldm(3)=   0.000000
     celldm(4)=   0.000000  celldm(5)=   0.000000  celldm(6)=   0.000000

     crystal axes: (cart. coord. in units of alat)
               a(1) = (   1.000000   0.000000   0.000000 )
               a(2) = (   0.000000   0.937861   0.000000 )
               a(3) = (   0.000000   0.000000   3.415235 )

     reciprocal axes: (cart. coord. in units 2 pi/alat)
               b(1) = (  1.000000  0.000000  0.000000 )
               b(2) = (  0.000000  1.066256  0.000000 )
               b(3) = (  0.000000  0.000000  0.292806 )

     PseudoPot. # 1 for O  read from file:
     /gpfs/group/ixd4/default/Simon/pseudopotentials/materialscloud/SSSP_1.3.0_PBE_efficiency/O.pbe-n-kjpaw_psl.0.1.UPF
     MD5 check sum: 0234752ac141de4415c5fc33072bef88
     Pseudo is Projector augmented-wave + core cor, Zval =  6.0
     Generated using "atomic" code by A. Dal Corso  v.5.0.99 svn rev. 10869
     Shape of augmentation charge: BESSEL
     Using radial grid of 1095 points,  4 beta functions with:
                l(1) =   0
                l(2) =   0
                l(3) =   1
                l(4) =   1
     Q(r) pseudized with 0 coefficients

     PseudoPot. # 2 for Ru read from file:
     /gpfs/group/ixd4/default/Simon/pseudopotentials/materialscloud/SSSP_1.3.0_PBE_efficiency/Ru_ONCV_PBE-1.0.oncvpsp.upf
     MD5 check sum: be037bb81c227cfb9b1461a9f099f4bd
     Pseudo is Norm-conserving, Zval = 16.0
     Generated using ONCVPSP code by D. R. Hamann
     Using radial grid of 1458 points,  6 beta functions with:
                l(1) =   0
                l(2) =   0
                l(3) =   1
                l(4) =   1
                l(5) =   2
                l(6) =   2

     PseudoPot. # 3 for H  read from file:
     /gpfs/group/ixd4/default/Simon/pseudopotentials/materialscloud/SSSP_1.3.0_PBE_efficiency/H.pbe-rrkjus_psl.1.0.0.UPF
     MD5 check sum: f52b6d4d1c606e5624b1dc7b2218f220
     Pseudo is Ultrasoft, Zval =  1.0
     Generated using "atomic" code by A. Dal Corso  v.5.1
     Using radial grid of  929 points,  2 beta functions with:
                l(1) =   0
                l(2) =   0
     Q(r) pseudized with 0 coefficients

     atomic species   valence    mass     pseudopotential
        O              6.00    15.99940     O ( 1.00)
        Ru            16.00   101.07000     Ru( 1.00)
        H              1.00     1.00794     H ( 1.00)

      4 Sym. Ops. (no inversion) found

   Cartesian axes

     site n.     atom                  positions (alat units)
         1           O   tau(   1) = (   0.0040669   0.4689304   0.8910049  )
         2           O   tau(   2) = (   0.4998849   0.4689304   0.9052798  )
         3           O   tau(   3) = (  -0.0000349   0.0000000   1.0139275  )
         4           O   tau(   4) = (   0.4999013   0.0000000   1.0138394  )
         5           Ru  tau(   5) = (   0.2501408   0.0000000   1.1926570  )
         6           Ru  tau(   6) = (   0.7499722   0.0000000   1.1928487  )
         7           O   tau(   7) = (   0.2494247   0.2905419   1.2026331  )
         8           O   tau(   8) = (   0.7506536   0.2906291   1.2023394  )
         9           Ru  tau(   9) = (   0.0008178   0.4689304   1.1956039  )
        10           Ru  tau(  10) = (   0.4999177   0.4689304   1.1862745  )
        11           O   tau(  11) = (   0.2494247   0.6473190   1.2026331  )
        12           O   tau(  12) = (   0.7506536   0.6472318   1.2023394  )
        13           O   tau(  13) = (   0.0000085   0.0000000   1.3981334  )
        14           O   tau(  14) = (   0.5000723   0.0000000   1.3981599  )
        15           O   tau(  15) = (   0.0004719   0.4689304   1.5102114  )
        16           O   tau(  16) = (   0.5001666   0.4689304   1.5110033  )
        17           Ru  tau(  17) = (   0.0000392   0.0000000   1.7076210  )
        18           Ru  tau(  18) = (   0.4999920   0.0000000   1.7076210  )
        19           O   tau(  19) = (   0.2499984   0.1780879   1.7076210  )
        20           O   tau(  20) = (   0.7499766   0.1781054   1.7076210  )
        21           Ru  tau(  21) = (   0.2492316   0.4689304   1.7076210  )
        22           Ru  tau(  22) = (   0.7500828   0.4689304   1.7076210  )
        23           O   tau(  23) = (   0.2499984   0.7597739   1.7076210  )
        24           O   tau(  24) = (   0.7499766   0.7597564   1.7076210  )
        25           O   tau(  25) = (   0.0004719   0.4689304   1.9050272  )
        26           O   tau(  26) = (   0.5001666   0.4689304   1.9042354  )
        27           O   tau(  27) = (   0.0000085   0.0000000   2.0171052  )
        28           O   tau(  28) = (   0.5000723   0.0000000   2.0170787  )
        29           Ru  tau(  29) = (   0.2501408   0.0000000   2.2225816  )
        30           Ru  tau(  30) = (   0.7499722   0.0000000   2.2223900  )
        31           O   tau(  31) = (   0.2494247   0.2905419   2.2126055  )
        32           O   tau(  32) = (   0.7506536   0.2906291   2.2128992  )
        33           Ru  tau(  33) = (   0.0008178   0.4689304   2.2196347  )
        34           Ru  tau(  34) = (   0.4999177   0.4689304   2.2289641  )
        35           O   tau(  35) = (   0.2494247   0.6473190   2.2126055  )
        36           O   tau(  36) = (   0.7506536   0.6472318   2.2128992  )
        37           O   tau(  37) = (  -0.0000349   0.0000000   2.4013145  )
        38           O   tau(  38) = (   0.4999013   0.0000000   2.4014026  )
        39           O   tau(  39) = (   0.0040669   0.4689304   2.5242338  )
        40           O   tau(  40) = (   0.4998849   0.4689304   2.5099588  )
        41           H   tau(  41) = (   0.1124447   0.4689304   0.7823407  )
        42           H   tau(  42) = (   0.1124447   0.4689304   2.6328946  )

     number of k points=     1  Marzari-Vanderbilt smearing, width (Ry)=  0.0300
                       cart. coord. in units 2pi/alat
        k(    1) = (   0.2500000   0.2665641   0.0000000), wk =   2.0000000

     Check: negative core charge=   -0.000001

     Initial potential from superposition of free atoms

     starting charge     361.9933, renormalised to     362.0000

     add environment contribution to local potential
     Polarization accuracy = 3.1E-12, # of iterations =  26

     negative rho (up, down):  2.748E-05 0.000E+00
     Starting wfcs are  234 randomized atomic wfcs
     Checking if some PAW data can be deallocated...

     Self-consistent Calculation

     iteration #  1     ecut=    50.00 Ry     beta= 0.70
     Davidson diagonalization with overlap
     ethr =  1.00E-02,  avg # of iterations =  2.0

     total energy              =   -3427.00271507 Ry
     estimated scf accuracy    <      11.42496471 Ry
     electrostatic embedding   =      -0.00175921 Ry
     cavitation energy         =       0.02058874 Ry
     PV energy                 =      -0.08522113 Ry
     correction to one-el term =     212.98517595 Ry

[...]

     negative rho (up, down):  1.048E-05 0.000E+00

[...]

     the potential shift due to the Gaussian-smeared nuclei is    -1.3150 ev

     End of self-consistent calculation

          k = 0.2500 0.2666 0.0000 ( 35123 PWs)   bands (ev):

   -79.2106 -79.1989 -78.9724 -78.9626 -78.9610 -78.9512 -78.8220 -78.8104
   -78.5625 -78.5469 -78.5379 -78.5172 -49.5379 -49.5262 -49.1956 -49.1841
   -49.1827 -49.1713 -49.1402 -49.1285 -49.0091 -48.9974 -48.8650 -48.8583
   -48.8537 -48.8494 -48.8347 -48.8230 -48.8212 -48.8098 -48.8058 -48.7945
[...]
     atom   41 type  3   force =     2.67510957    0.00000002  -16.66098105
     atom   42 type  3   force =     2.67521144    0.00000002   16.66102054
     The local contribution  to forces
     atom    1 type  1   force =     1.13813417   -0.00000000   95.75883493
     atom    2 type  1   force =    -0.02883676    0.00000000   99.85508093
     atom    3 type  1   force =     0.04149994    0.00000000   92.99323893
     atom    4 type  1   force =    -0.03101418    0.00000000   93.02535389
     atom    5 type  2   force =    -0.18977964    0.00000000  175.23763787
     atom    6 type  2   force =     0.09674667    0.00000000  175.27445110
     atom    7 type  1   force =    -0.31530195    1.10946828   62.28970588
     atom    8 type  1   force =     0.27998327    1.16041584   62.38398183
     atom    9 type  2   force =    -0.05427423    0.00000000  167.66466215
     atom   10 type  2   force =     0.05615429    0.00000000  173.47951345
     atom   11 type  1   force =    -0.31530195   -1.10946828   62.28970588
     atom   12 type  1   force =     0.27998327   -1.16041584   62.38398183
     atom   13 type  1   force =     0.03894084    0.00000000   38.25197876
     atom   14 type  1   force =     0.03660414   -0.00000000   38.26264888
     atom   15 type  1   force =     0.11980927   -0.00000000   24.92832872
     atom   16 type  1   force =     0.06030067    0.00000000   27.23206571
     atom   17 type  2   force =     0.05199762    0.00000000   -0.00586720
     atom   18 type  2   force =     0.02669862    0.00000000   -0.00587908
     atom   19 type  1   force =    -0.00810240   -0.88214219   -0.00245883
     atom   20 type  1   force =    -0.01339941   -0.88511062   -0.00245916
     atom   21 type  2   force =    -1.17108104    0.00000000   -0.00602431
     atom   22 type  2   force =     0.52887491    0.00000000   -0.00602782
     atom   23 type  1   force =    -0.00810307    0.88178579   -0.00245883
     atom   24 type  1   force =    -0.01339999    0.88475436   -0.00245916
     atom   25 type  1   force =     0.11979843   -0.00000000  -24.93009065
     atom   26 type  1   force =     0.06029629    0.00000000  -27.23383982
     atom   27 type  1   force =     0.03894128   -0.00000000  -38.25372529
     atom   28 type  1   force =     0.03660475    0.00000000  -38.26439283
     atom   29 type  2   force =    -0.18977205   -0.00000000 -175.24375089
     atom   30 type  2   force =     0.09674116    0.00000000 -175.28056583
     atom   31 type  1   force =    -0.31527616    1.10946327  -62.29215270
     atom   32 type  1   force =     0.27996009    1.16041235  -62.38643270
     atom   33 type  2   force =    -0.05428612    0.00000000 -167.67049238
     atom   34 type  2   force =     0.05614564    0.00000000 -173.48524981
     atom   35 type  1   force =    -0.31527616   -1.10946327  -62.29215270
     atom   36 type  1   force =     0.27996009   -1.16041235  -62.38643270
     atom   37 type  1   force =     0.04149813   -0.00000000  -92.99715043
     atom   38 type  1   force =    -0.03101356   -0.00000000  -93.02926736
     atom   39 type  1   force =     1.13817154    0.00000000  -95.76036631
     atom   40 type  1   force =    -0.02884163   -0.00000000  -99.85644567
     atom   41 type  3   force =    -2.61104144    0.00000000   16.63348934
     atom   42 type  3   force =    -2.61104144   -0.00000000  -16.63348934
     The core correction contribution to forces
     atom    1 type  1   force =    -0.01775546    0.00000000   -0.00276294
     atom    2 type  1   force =     0.00021785   -0.00000000   -0.01131419
     atom    3 type  1   force =    -0.00007294    0.00000000   -0.01089551
     atom    4 type  1   force =     0.00001625   -0.00000000   -0.01092227
     atom    5 type  2   force =     0.00000000    0.00000000    0.00000000
     atom    6 type  2   force =     0.00000000    0.00000000    0.00000000
     atom    7 type  1   force =    -0.00061626   -0.00005770    0.00109613
     atom    8 type  1   force =     0.00079088   -0.00005521    0.00078053
     atom    9 type  2   force =     0.00000000    0.00000000    0.00000000
     atom   10 type  2   force =     0.00000000    0.00000000    0.00000000
     atom   11 type  1   force =    -0.00061626    0.00005770    0.00109613
     atom   12 type  1   force =     0.00079088    0.00005521    0.00078053
     atom   13 type  1   force =    -0.00001764    0.00000000   -0.00049551
     atom   14 type  1   force =    -0.00006131   -0.00000000   -0.00038281
     atom   15 type  1   force =     0.00008310    0.00000000    0.00003868
     atom   16 type  1   force =    -0.00002187    0.00000000   -0.00329203
     atom   17 type  2   force =     0.00000000    0.00000000    0.00000000
     atom   18 type  2   force =     0.00000000    0.00000000    0.00000000
     atom   19 type  1   force =    -0.00020840   -0.00000610   -0.00000206
     atom   20 type  1   force =     0.00007067    0.00002268   -0.00000207
     atom   21 type  2   force =     0.00000000    0.00000000    0.00000000
     atom   22 type  2   force =     0.00000000    0.00000000    0.00000000
     atom   23 type  1   force =    -0.00020840    0.00000555   -0.00000206
     atom   24 type  1   force =     0.00007067   -0.00002323   -0.00000207
     atom   25 type  1   force =     0.00008306   -0.00000000   -0.00004083
     atom   26 type  1   force =    -0.00002186   -0.00000000    0.00329001
     atom   27 type  1   force =    -0.00001764   -0.00000000    0.00049316
     atom   28 type  1   force =    -0.00006131    0.00000000    0.00038043
     atom   29 type  2   force =     0.00000000    0.00000000    0.00000000
     atom   30 type  2   force =     0.00000000    0.00000000    0.00000000
     atom   31 type  1   force =    -0.00061621   -0.00005781   -0.00109775
     atom   32 type  1   force =     0.00079087   -0.00005528   -0.00078218
     atom   33 type  2   force =     0.00000000    0.00000000    0.00000000
     atom   34 type  2   force =     0.00000000    0.00000000    0.00000000
     atom   35 type  1   force =    -0.00061621    0.00005781   -0.00109775
     atom   36 type  1   force =     0.00079087    0.00005528   -0.00078218
     atom   37 type  1   force =    -0.00007294   -0.00000000    0.01089074
     atom   38 type  1   force =     0.00001625   -0.00000000    0.01091759
     atom   39 type  1   force =    -0.01775618   -0.00000000    0.00276046
     atom   40 type  1   force =     0.00021786    0.00000000    0.01131257
     atom   41 type  3   force =     0.00000000    0.00000000    0.00000000
     atom   42 type  3   force =     0.00000000    0.00000000    0.00000000
     The Hubbard contrib.    to forces
     atom    1 type  1   force =     0.00000000    0.00000000    0.00000000
     atom    2 type  1   force =     0.00000000    0.00000000    0.00000000
     atom    3 type  1   force =     0.00000000    0.00000000    0.00000000
     atom    4 type  1   force =     0.00000000    0.00000000    0.00000000
     atom    5 type  2   force =     0.00000000    0.00000000    0.00000000
     atom    6 type  2   force =     0.00000000    0.00000000    0.00000000
     atom    7 type  1   force =     0.00000000    0.00000000    0.00000000
     atom    8 type  1   force =     0.00000000    0.00000000    0.00000000
     atom    9 type  2   force =     0.00000000    0.00000000    0.00000000
     atom   10 type  2   force =     0.00000000    0.00000000    0.00000000
     atom   11 type  1   force =     0.00000000    0.00000000    0.00000000
     atom   12 type  1   force =     0.00000000    0.00000000    0.00000000
     atom   13 type  1   force =     0.00000000    0.00000000    0.00000000
     atom   14 type  1   force =     0.00000000    0.00000000    0.00000000
     atom   15 type  1   force =     0.00000000    0.00000000    0.00000000
     atom   16 type  1   force =     0.00000000    0.00000000    0.00000000
     atom   17 type  2   force =     0.00000000    0.00000000    0.00000000
     atom   18 type  2   force =     0.00000000    0.00000000    0.00000000
     atom   19 type  1   force =     0.00000000    0.00000000    0.00000000
     atom   20 type  1   force =     0.00000000    0.00000000    0.00000000
     atom   21 type  2   force =     0.00000000    0.00000000    0.00000000
     atom   22 type  2   force =     0.00000000    0.00000000    0.00000000
     atom   23 type  1   force =     0.00000000    0.00000000    0.00000000
     atom   24 type  1   force =     0.00000000    0.00000000    0.00000000
     atom   25 type  1   force =     0.00000000    0.00000000    0.00000000
     atom   26 type  1   force =     0.00000000    0.00000000    0.00000000
     atom   27 type  1   force =     0.00000000    0.00000000    0.00000000
     atom   28 type  1   force =     0.00000000    0.00000000    0.00000000
     atom   29 type  2   force =     0.00000000    0.00000000    0.00000000
     atom   30 type  2   force =     0.00000000    0.00000000    0.00000000
     atom   31 type  1   force =     0.00000000    0.00000000    0.00000000
     atom   32 type  1   force =     0.00000000    0.00000000    0.00000000
     atom   33 type  2   force =     0.00000000    0.00000000    0.00000000
     atom   34 type  2   force =     0.00000000    0.00000000    0.00000000
     atom   35 type  1   force =     0.00000000    0.00000000    0.00000000
     atom   36 type  1   force =     0.00000000    0.00000000    0.00000000
     atom   37 type  1   force =     0.00000000    0.00000000    0.00000000
     atom   38 type  1   force =     0.00000000    0.00000000    0.00000000
     atom   39 type  1   force =     0.00000000    0.00000000    0.00000000
     atom   40 type  1   force =     0.00000000    0.00000000    0.00000000
     atom   41 type  3   force =     0.00000000    0.00000000    0.00000000
     atom   42 type  3   force =     0.00000000    0.00000000    0.00000000
     The SCF correction term to forces
     atom    1 type  1   force =     0.00000045   -0.00000000    0.00000101
     atom    2 type  1   force =     0.00000002    0.00000000    0.00000146
     atom    3 type  1   force =    -0.00000008    0.00000000    0.00000148
     atom    4 type  1   force =     0.00000009   -0.00000000    0.00000167
     atom    5 type  2   force =     0.00000016    0.00000000    0.00000377
     atom    6 type  2   force =    -0.00000013    0.00000000    0.00000483
     atom    7 type  1   force =     0.00000016   -0.00000022    0.00000137
     atom    8 type  1   force =    -0.00000023   -0.00000063    0.00000176
     atom    9 type  2   force =     0.00000007   -0.00000000    0.00000388
     atom   10 type  2   force =    -0.00000032   -0.00000000    0.00000407
     atom   11 type  1   force =     0.00000016    0.00000022    0.00000137
     atom   12 type  1   force =    -0.00000023    0.00000063    0.00000176
     atom   13 type  1   force =    -0.00000029    0.00000000    0.00000135
     atom   14 type  1   force =     0.00000024    0.00000000    0.00000202
     atom   15 type  1   force =     0.00000011   -0.00000000    0.00000085
     atom   16 type  1   force =     0.00000030   -0.00000000    0.00000117
     atom   17 type  2   force =    -0.00000032    0.00000000   -0.00000002
     atom   18 type  2   force =    -0.00000012    0.00000000   -0.00000002
     atom   19 type  1   force =     0.00000065   -0.00000075   -0.00000001
     atom   20 type  1   force =    -0.00000084   -0.00000072   -0.00000001
     atom   21 type  2   force =     0.00000109   -0.00000000   -0.00000002
     atom   22 type  2   force =    -0.00000115   -0.00000000   -0.00000002
     atom   23 type  1   force =     0.00000065    0.00000075   -0.00000001
     atom   24 type  1   force =    -0.00000084    0.00000072   -0.00000001
     atom   25 type  1   force =     0.00000011   -0.00000000   -0.00000087
     atom   26 type  1   force =     0.00000030   -0.00000000   -0.00000118
     atom   27 type  1   force =    -0.00000029    0.00000000   -0.00000136
     atom   28 type  1   force =     0.00000024    0.00000000   -0.00000203
     atom   29 type  2   force =     0.00000016    0.00000000   -0.00000377
     atom   30 type  2   force =    -0.00000013    0.00000000   -0.00000484
     atom   31 type  1   force =     0.00000016   -0.00000023   -0.00000137
     atom   32 type  1   force =    -0.00000023   -0.00000063   -0.00000177
     atom   33 type  2   force =     0.00000007   -0.00000000   -0.00000389
     atom   34 type  2   force =    -0.00000033   -0.00000000   -0.00000407
     atom   35 type  1   force =     0.00000016    0.00000023   -0.00000137
     atom   36 type  1   force =    -0.00000023    0.00000063   -0.00000177
     atom   37 type  1   force =    -0.00000008    0.00000000   -0.00000148
     atom   38 type  1   force =     0.00000009    0.00000000   -0.00000167
     atom   39 type  1   force =     0.00000045    0.00000000   -0.00000101
     atom   40 type  1   force =     0.00000002    0.00000000   -0.00000145
     atom   41 type  3   force =     0.00000004   -0.00000000    0.00000016
     atom   42 type  3   force =     0.00000004    0.00000000   -0.00000016

     Total force =     0.000284     Total SCF correction =     0.000014
     Energy error            =      3.0E-07 Ry
     Gradient error          =      6.6E-05 Ry/Bohr

     bfgs converged in  45 scf cycles and  44 bfgs steps
     (criteria: energy <  1.0E-04 Ry, force <  1.0E-04 Ry/Bohr)

     End of BFGS Geometry Optimization

     Final energy             =   -3430.1687799995 Ry

     File /storage/home/mgm6007/ixd4/Maria/Strain2_Files/RuO2-110-0-0/RuO2-110-0-0.bfgs deleted, as requested
Begin final coordinates

ATOMIC_POSITIONS (crystal)
O            -0.0091862822        0.5000000000        0.2725434520
O             0.4979864078        0.5000000000        0.2739088017
O            -0.0000206978        0.0000000000        0.3070401405
O             0.4995741735        0.0000000000        0.3067930915
Ru            0.2499715127        0.0000000000        0.3542536331
Ru            0.7494821340        0.0000000000        0.3542710002
O             0.2479658834        0.3114347404        0.3589589742
O             0.7511246029        0.3113333228        0.3588054130
Ru           -0.0005944906        0.5000000000        0.3585556121
Ru            0.5001145840        0.5000000000        0.3512071025
O             0.2479658834        0.6885652596        0.3589589742
O             0.7511246029        0.6886666772        0.3588054130
O             0.0000388061        0.0000000000        0.4119446954
O             0.5000878181        0.0000000000        0.4119264358
O             0.0036331234        0.5000000000        0.4465556765
O             0.5028560606        0.5000000000        0.4430108594
Ru            0.0005105778        0.0000000000        0.5000010000
Ru            0.5005437530        0.0000000000        0.5000010000
O             0.2507377702        0.1882440274        0.5000010000
O             0.7498081362        0.1883206895        0.5000010000
Ru            0.2560137416        0.5000000000        0.5000010000
Ru            0.7478807312        0.5000000000        0.5000010000
O             0.2507377702        0.8117569726        0.5000010000
O             0.7498081362        0.8116803105        0.5000010000
O             0.0036331234        0.5000000000        0.5534453235
O             0.5028560606        0.5000000000        0.5569901406
O             0.0000388061        0.0000000000        0.5880563046
O             0.5000878181        0.0000000000        0.5880745642
Ru            0.2499715127        0.0000000000        0.6457473669
Ru            0.7494821340        0.0000000000        0.6457299998
O             0.2479658834        0.3114347404        0.6410420258
O             0.7511246029        0.3113333228        0.6411955870
Ru           -0.0005944906        0.5000000000        0.6414453879
Ru            0.5001145840        0.5000000000        0.6487938975
O             0.2479658834        0.6885652596        0.6410420258
O             0.7511246029        0.6886666772        0.6411955870
O            -0.0000206978        0.0000000000        0.6929618595
O             0.4995741735        0.0000000000        0.6932089085
O            -0.0091862822        0.5000000000        0.7274575480
O             0.4979864078        0.5000000000        0.7260921983
H             0.1224905698        0.5000000000        0.2507051560
H             0.1224905698        0.5000000000        0.7492948440
End final coordinates

     Writing all to output data dir /storage/home/mgm6007/ixd4/Maria/Strain2_Files/RuO2-110-0-0/RuO2-110-0-0.save/

     General routines

     Parallel routines

     Environ routines

   This run was terminated on:  15:54: 4  23Jul2023

   JOB DONE.