     Program PWSCF v.7.2 starts on 21Jul2023 at 11:32:38
        Git branch: heads/qe-7.2
        Last git commit: b4c5e8deeb7d1863e7553a87b45f8d22c21926a5
        Last git commit date: Mon Mar 27 16:12:09 2023 +0000
        Last git commit subject: Merge branch 'merge_fix_hubbard' into 'develop'

     Reading input from RuO2-110-0-012345.in

     Current dimensions of program PWSCF are:
     Max number of different atomic species (ntypx) = 10
     Max number of k-points (npk) =  40000
     Max angular momentum in pseudopotentials (lmaxx) =  4

     Reading input from environ.in:
     * Environ restarting
     * setting up water environment
     * using electronic solvent mode
     * setting boundary derivatives method to SCCS default

     file O.pbe-n-kjpaw_psl.0.1.UPF: wavefunction(s)  2P renormalized
     Found identity + (  0.5000  0.0000 -0.0000) symmetry
     This is a supercell, fractional translations are disabled
     Message from routine setup:
     using ibrav=0 with symmetry is DISCOURAGED, use correct ibrav instead

     R & G space division:  proc/nbgrp/npool/nimage =      20
     Subspace diagonalization in iterative solution of the eigenvalue problem:
     one sub-group per band group will be used

     Using Slab Decomposition

     bravais-lattice index     =            0
     lattice parameter (alat)  =      12.1041  a.u.
     unit-cell volume          =    5954.5483 (a.u.)^3
     number of atoms/cell      =           52
     number of atomic types    =            3
     number of electrons       =       372.00
     number of Kohn-Sham states=          223
     kinetic-energy cutoff     =      50.0000  Ry
     charge density cutoff     =     500.0000  Ry
     scf convergence threshold =      1.0E-09
     mixing beta               =       0.7000
     number of iterations used =            8  local-TF  mixing
     energy convergence thresh.=      1.0E-04
     force convergence thresh. =      1.0E-04
     Exchange-correlation= PBE
                           (   1   4   3   4   0   0   0)
     nstep                     =          200

                                  Environ Setup Summary

          O. Andreussi, I. Dabo and N. Marzari, J. Chem. Phys. 136, 064102 (2012)

     in publications or presentations arising from this work.

     Parameters

     compensation onset threshold      =               0.1000E+00
     static permittivity               =                    78.30
     surface tension in input (dyn/cm) =                    47.90
     surface tension in internal units =               0.6153E-04
     external pressure in input (GPa)  =                    -0.36
     external pressure in inter. units =              -0.2447E-04

     Solvent Boundary

     solvent mode                      =               electronic
     derivatives method                =                    chain
     numerical core for derivatives    =                      fft
     switching function adopted        =                     SCCS
     density limit for vacuum region   =               0.5000E-02
     density limit for bulk solvent    =               0.1000E-03

     Electrostatic Setup

     electrostatic problem to solve    =              generalized
     numerical solver adopted          =                       cg
     type of auxiliary density adopted =                     none
     numerical core for poisson        =                      fft
     type of pbc corrections           =                parabolic
     numerical core for corrections    =                      1da

     celldm(1)=  12.104053  celldm(2)=   0.000000  celldm(3)=   0.000000
     celldm(4)=   0.000000  celldm(5)=   0.000000  celldm(6)=   0.000000

     crystal axes: (cart. coord. in units of alat)
               a(1) = (   1.000000   0.000000   0.000000 )
               a(2) = (   0.000000   0.971735   0.000000 )
               a(3) = (   0.000000   0.000000   3.455479 )

     reciprocal axes: (cart. coord. in units 2 pi/alat)
               b(1) = (  1.000000  0.000000  0.000000 )
               b(2) = (  0.000000  1.029087  0.000000 )
               b(3) = (  0.000000  0.000000  0.289395 )

     PseudoPot. # 1 for O  read from file:
     /gpfs/group/ixd4/default/Simon/pseudopotentials/materialscloud/SSSP_1.3.0_PBE_efficiency/O.pbe-n-kjpaw_psl.0.1.UPF
     MD5 check sum: 0234752ac141de4415c5fc33072bef88
     Pseudo is Projector augmented-wave + core cor, Zval =  6.0
     Generated using "atomic" code by A. Dal Corso  v.5.0.99 svn rev. 10869
     Shape of augmentation charge: BESSEL
     Using radial grid of 1095 points,  4 beta functions with:
                l(1) =   0
                l(2) =   0
                l(3) =   1
                l(4) =   1
     Q(r) pseudized with 0 coefficients

     PseudoPot. # 2 for Ru read from file:
     /gpfs/group/ixd4/default/Simon/pseudopotentials/materialscloud/SSSP_1.3.0_PBE_efficiency/Ru_ONCV_PBE-1.0.oncvpsp.upf
     MD5 check sum: be037bb81c227cfb9b1461a9f099f4bd
     Pseudo is Norm-conserving, Zval = 16.0
     Generated using ONCVPSP code by D. R. Hamann
     Using radial grid of 1458 points,  6 beta functions with:
                l(1) =   0
                l(2) =   0
                l(3) =   1
                l(4) =   1
                l(5) =   2
                l(6) =   2

     PseudoPot. # 3 for H  read from file:
     /gpfs/group/ixd4/default/Simon/pseudopotentials/materialscloud/SSSP_1.3.0_PBE_efficiency/H.pbe-rrkjus_psl.1.0.0.UPF
     MD5 check sum: f52b6d4d1c606e5624b1dc7b2218f220
     Pseudo is Ultrasoft, Zval =  1.0
     Generated using "atomic" code by A. Dal Corso  v.5.1
     Using radial grid of  929 points,  2 beta functions with:
                l(1) =   0
                l(2) =   0
     Q(r) pseudized with 0 coefficients

     atomic species   valence    mass     pseudopotential
        O              6.00    15.99940     O ( 1.00)
        Ru            16.00   101.07000     Ru( 1.00)
        H              1.00     1.00794     H ( 1.00)

      4 Sym. Ops. (no inversion) found

   Cartesian axes

     site n.     atom                  positions (alat units)
         1           O   tau(   1) = (   0.0014491   0.4858677   0.9098660  )
         2           O   tau(   2) = (   0.5014490   0.4858677   0.9098659  )
         3           O   tau(   3) = (  -0.0032312   0.0000000   0.9905402  )
         4           O   tau(   4) = (   0.4967688   0.0000000   0.9905402  )
         5           Ru  tau(   5) = (   0.2471517   0.0000000   1.2432661  )
         6           Ru  tau(   6) = (   0.7471517   0.0000000   1.2432661  )
         7           O   tau(   7) = (   0.2475809   0.2947208   1.2264317  )
         8           O   tau(   8) = (   0.7475810   0.2947208   1.2264317  )
         9           Ru  tau(   9) = (  -0.0029139   0.4858677   1.2316029  )
        10           Ru  tau(  10) = (   0.4970862   0.4858677   1.2316025  )
        11           O   tau(  11) = (   0.2475809   0.6770146   1.2264317  )
        12           O   tau(  12) = (   0.7475810   0.6770146   1.2264317  )
        13           O   tau(  13) = (  -0.0028141   0.0000000   1.4252670  )
        14           O   tau(  14) = (   0.4971858   0.0000000   1.4252669  )
        15           O   tau(  15) = (  -0.0030325   0.4858677   1.5337007  )
        16           O   tau(  16) = (   0.4969675   0.4858677   1.5337001  )
        17           Ru  tau(  17) = (  -0.0030299   0.0000000   1.7277432  )
        18           Ru  tau(  18) = (   0.4969701   0.0000000   1.7277432  )
        19           O   tau(  19) = (   0.2469045   0.1893095   1.7277432  )
        20           O   tau(  20) = (   0.7469044   0.1893095   1.7277432  )
        21           Ru  tau(  21) = (   0.2467997   0.4858677   1.7277432  )
        22           Ru  tau(  22) = (   0.7467992   0.4858677   1.7277432  )
        23           O   tau(  23) = (   0.2469045   0.7824268   1.7277432  )
        24           O   tau(  24) = (   0.7469044   0.7824268   1.7277432  )
        25           O   tau(  25) = (  -0.0030325   0.4858677   1.9217822  )
        26           O   tau(  26) = (   0.4969675   0.4858677   1.9217828  )
        27           O   tau(  27) = (  -0.0028141   0.0000000   2.0302160  )
        28           O   tau(  28) = (   0.4971858   0.0000000   2.0302160  )
        29           Ru  tau(  29) = (   0.2471517   0.0000000   2.2122168  )
        30           Ru  tau(  30) = (   0.7471517   0.0000000   2.2122168  )
        31           O   tau(  31) = (   0.2475809   0.2947208   2.2290513  )
        32           O   tau(  32) = (   0.7475810   0.2947208   2.2290513  )
        33           Ru  tau(  33) = (  -0.0029139   0.4858677   2.2238801  )
        34           Ru  tau(  34) = (   0.4970862   0.4858677   2.2238804  )
        35           O   tau(  35) = (   0.2475809   0.6770146   2.2290513  )
        36           O   tau(  36) = (   0.7475810   0.6770146   2.2290513  )
        37           O   tau(  37) = (  -0.0032312   0.0000000   2.4649462  )
        38           O   tau(  38) = (   0.4967688   0.0000000   2.4649462  )
        39           O   tau(  39) = (   0.0014491   0.4858677   2.5456169  )
        40           O   tau(  40) = (   0.5014490   0.4858677   2.5456171  )
        41           H   tau(  41) = (   0.1516868   0.4858677   0.8784240  )
        42           H   tau(  42) = (   0.1516868   0.4858677   2.5770555  )
        43           H   tau(  43) = (   0.6516871   0.4858677   0.8784238  )
        44           H   tau(  44) = (   0.6516871   0.4858677   2.5770557  )
        45           H   tau(  45) = (  -0.0048061   0.1199709   0.9037145  )
        46           H   tau(  46) = (  -0.0048061   0.1199709   2.5517650  )
        47           H   tau(  47) = (   0.4951939   0.1199709   0.9037145  )
        48           H   tau(  48) = (   0.4951939   0.1199709   2.5517650  )
        49           H   tau(  49) = (  -0.0048061   0.8517645   0.9037145  )
        50           H   tau(  50) = (  -0.0048061   0.8517645   2.5517650  )
        51           H   tau(  51) = (   0.4951939   0.8517645   0.9037145  )
        52           H   tau(  52) = (   0.4951939   0.8517645   2.5517650  )

     number of k points=     1  Marzari-Vanderbilt smearing, width (Ry)=  0.0300
                       cart. coord. in units 2pi/alat
        k(    1) = (   0.2500000   0.2572717   0.0000000), wk =   2.0000000

     Check: negative core charge=   -0.000001

     Initial potential from superposition of free atoms

     starting charge     371.9932, renormalised to     372.0000

     add environment contribution to local potential
     Polarization accuracy = 3.1E-12, # of iterations =  20

     negative rho (up, down):  2.457E-05 0.000E+00
     Starting wfcs are  244 randomized atomic wfcs
     Checking if some PAW data can be deallocated...

     Self-consistent Calculation

     iteration #  1     ecut=    50.00 Ry     beta= 0.70
     Davidson diagonalization with overlap
     ethr =  1.00E-02,  avg # of iterations =  3.0

     total energy              =   -3440.75693065 Ry
     estimated scf accuracy    <       8.86612693 Ry
     electrostatic embedding   =      -0.00178188 Ry
[...]
     atom   47 type  3   force =     0.05424300   -2.31535800   16.28818593
     atom   48 type  3   force =     0.05424300   -2.31535800  -16.28818593
     atom   49 type  3   force =     0.05425010    2.31535734   16.28818496
     atom   50 type  3   force =     0.05425010    2.31535734  -16.28818496
     atom   51 type  3   force =     0.05424300    2.31535800   16.28818593
     atom   52 type  3   force =     0.05424300    2.31535800  -16.28818593
     The core correction contribution to forces
     atom    1 type  1   force =    -0.01661350    0.00000000   -0.00300748
     atom    2 type  1   force =    -0.01661436   -0.00000000   -0.00300739
     atom    3 type  1   force =     0.00055579    0.00000000    0.01371312
     atom    4 type  1   force =     0.00055578    0.00000000    0.01371312
     atom    5 type  2   force =     0.00000000    0.00000000    0.00000000
     atom    6 type  2   force =     0.00000000    0.00000000    0.00000000
     atom    7 type  1   force =     0.00010619    0.00036256    0.00025304
     atom    8 type  1   force =     0.00010619    0.00036254    0.00025307
     atom    9 type  2   force =     0.00000000    0.00000000    0.00000000
     atom   10 type  2   force =     0.00000000    0.00000000    0.00000000
     atom   11 type  1   force =     0.00010619   -0.00036256    0.00025304
     atom   12 type  1   force =     0.00010619   -0.00036254    0.00025307
     atom   13 type  1   force =     0.00001725   -0.00000000    0.00272294
     atom   14 type  1   force =     0.00001725   -0.00000000    0.00272294
     atom   15 type  1   force =     0.00000090   -0.00000000    0.00019539
     atom   16 type  1   force =     0.00000089   -0.00000000    0.00019535
     atom   17 type  2   force =     0.00000000    0.00000000    0.00000000
     atom   18 type  2   force =     0.00000000    0.00000000    0.00000000
     atom   19 type  1   force =    -0.00002085    0.00012755   -0.00000194
     atom   20 type  1   force =    -0.00002085    0.00012755   -0.00000194
     atom   21 type  2   force =     0.00000000    0.00000000    0.00000000
     atom   22 type  2   force =     0.00000000    0.00000000    0.00000000
     atom   23 type  1   force =    -0.00002085   -0.00012816   -0.00000194
     atom   24 type  1   force =    -0.00002085   -0.00012816   -0.00000194
     atom   25 type  1   force =     0.00000089   -0.00000000   -0.00019776
     atom   26 type  1   force =     0.00000088    0.00000000   -0.00019772
     atom   27 type  1   force =     0.00001726   -0.00000000   -0.00272504
     atom   28 type  1   force =     0.00001726   -0.00000000   -0.00272504
     atom   29 type  2   force =     0.00000000    0.00000000    0.00000000
     atom   30 type  2   force =     0.00000000    0.00000000    0.00000000
     atom   31 type  1   force =     0.00010619    0.00036273   -0.00025510
     atom   32 type  1   force =     0.00010619    0.00036271   -0.00025514
     atom   33 type  2   force =     0.00000000    0.00000000    0.00000000
     atom   34 type  2   force =     0.00000000    0.00000000    0.00000000
     atom   35 type  1   force =     0.00010619   -0.00036273   -0.00025510
     atom   36 type  1   force =     0.00010619   -0.00036271   -0.00025514
     atom   37 type  1   force =     0.00055588    0.00000000   -0.01371737
     atom   38 type  1   force =     0.00055587   -0.00000000   -0.01371737
     atom   39 type  1   force =    -0.01661419   -0.00000000    0.00300532
     atom   40 type  1   force =    -0.01661504    0.00000000    0.00300524
     atom   41 type  3   force =     0.00000000    0.00000000    0.00000000
     atom   42 type  3   force =     0.00000000    0.00000000    0.00000000
     atom   43 type  3   force =     0.00000000    0.00000000    0.00000000
     atom   44 type  3   force =     0.00000000    0.00000000    0.00000000
     atom   45 type  3   force =     0.00000000    0.00000000    0.00000000
     atom   46 type  3   force =     0.00000000    0.00000000    0.00000000
     atom   47 type  3   force =     0.00000000    0.00000000    0.00000000
     atom   48 type  3   force =     0.00000000    0.00000000    0.00000000
     atom   49 type  3   force =     0.00000000    0.00000000    0.00000000
     atom   50 type  3   force =     0.00000000    0.00000000    0.00000000
     atom   51 type  3   force =     0.00000000    0.00000000    0.00000000
     atom   52 type  3   force =     0.00000000    0.00000000    0.00000000
     The Hubbard contrib.    to forces
     atom    1 type  1   force =     0.00000000    0.00000000    0.00000000
     atom    2 type  1   force =     0.00000000    0.00000000    0.00000000
     atom    3 type  1   force =     0.00000000    0.00000000    0.00000000
     atom    4 type  1   force =     0.00000000    0.00000000    0.00000000
     atom    5 type  2   force =     0.00000000    0.00000000    0.00000000
     atom    6 type  2   force =     0.00000000    0.00000000    0.00000000
     atom    7 type  1   force =     0.00000000    0.00000000    0.00000000
     atom    8 type  1   force =     0.00000000    0.00000000    0.00000000
     atom    9 type  2   force =     0.00000000    0.00000000    0.00000000
     atom   10 type  2   force =     0.00000000    0.00000000    0.00000000
     atom   11 type  1   force =     0.00000000    0.00000000    0.00000000
     atom   12 type  1   force =     0.00000000    0.00000000    0.00000000
     atom   13 type  1   force =     0.00000000    0.00000000    0.00000000
     atom   14 type  1   force =     0.00000000    0.00000000    0.00000000
     atom   15 type  1   force =     0.00000000    0.00000000    0.00000000
     atom   16 type  1   force =     0.00000000    0.00000000    0.00000000
     atom   17 type  2   force =     0.00000000    0.00000000    0.00000000
     atom   18 type  2   force =     0.00000000    0.00000000    0.00000000
     atom   19 type  1   force =     0.00000000    0.00000000    0.00000000
     atom   20 type  1   force =     0.00000000    0.00000000    0.00000000
     atom   21 type  2   force =     0.00000000    0.00000000    0.00000000
     atom   22 type  2   force =     0.00000000    0.00000000    0.00000000
     atom   23 type  1   force =     0.00000000    0.00000000    0.00000000
     atom   24 type  1   force =     0.00000000    0.00000000    0.00000000
     atom   25 type  1   force =     0.00000000    0.00000000    0.00000000
     atom   26 type  1   force =     0.00000000    0.00000000    0.00000000
     atom   27 type  1   force =     0.00000000    0.00000000    0.00000000
     atom   28 type  1   force =     0.00000000    0.00000000    0.00000000
     atom   29 type  2   force =     0.00000000    0.00000000    0.00000000
     atom   30 type  2   force =     0.00000000    0.00000000    0.00000000
     atom   31 type  1   force =     0.00000000    0.00000000    0.00000000
     atom   32 type  1   force =     0.00000000    0.00000000    0.00000000
     atom   33 type  2   force =     0.00000000    0.00000000    0.00000000
     atom   34 type  2   force =     0.00000000    0.00000000    0.00000000
     atom   35 type  1   force =     0.00000000    0.00000000    0.00000000
     atom   36 type  1   force =     0.00000000    0.00000000    0.00000000
     atom   37 type  1   force =     0.00000000    0.00000000    0.00000000
     atom   38 type  1   force =     0.00000000    0.00000000    0.00000000
     atom   39 type  1   force =     0.00000000    0.00000000    0.00000000
     atom   40 type  1   force =     0.00000000    0.00000000    0.00000000
     atom   41 type  3   force =     0.00000000    0.00000000    0.00000000
     atom   42 type  3   force =     0.00000000    0.00000000    0.00000000
     atom   43 type  3   force =     0.00000000    0.00000000    0.00000000
     atom   44 type  3   force =     0.00000000    0.00000000    0.00000000
     atom   45 type  3   force =     0.00000000    0.00000000    0.00000000
     atom   46 type  3   force =     0.00000000    0.00000000    0.00000000
     atom   47 type  3   force =     0.00000000    0.00000000    0.00000000
     atom   48 type  3   force =     0.00000000    0.00000000    0.00000000
     atom   49 type  3   force =     0.00000000    0.00000000    0.00000000
     atom   50 type  3   force =     0.00000000    0.00000000    0.00000000
     atom   51 type  3   force =     0.00000000    0.00000000    0.00000000
     atom   52 type  3   force =     0.00000000    0.00000000    0.00000000
     The SCF correction term to forces
     atom    1 type  1   force =    -0.00000034   -0.00000000    0.00000020
     atom    2 type  1   force =    -0.00000051    0.00000000   -0.00000030
     atom    3 type  1   force =     0.00000005   -0.00000000    0.00000129
     atom    4 type  1   force =     0.00000022   -0.00000000    0.00000105
     atom    5 type  2   force =    -0.00000069   -0.00000000    0.00000545
     atom    6 type  2   force =     0.00000002   -0.00000000    0.00000533
     atom    7 type  1   force =    -0.00000039    0.00000093    0.00000150
     atom    8 type  1   force =     0.00000029    0.00000091    0.00000148
     atom    9 type  2   force =    -0.00000057    0.00000000    0.00000338
     atom   10 type  2   force =    -0.00000055    0.00000000    0.00000313
     atom   11 type  1   force =    -0.00000039   -0.00000093    0.00000150
     atom   12 type  1   force =     0.00000029   -0.00000091    0.00000148
     atom   13 type  1   force =     0.00000005   -0.00000000    0.00000293
     atom   14 type  1   force =     0.00000007   -0.00000000    0.00000191
     atom   15 type  1   force =    -0.00000000    0.00000000    0.00000101
     atom   16 type  1   force =    -0.00000007    0.00000000    0.00000116
     atom   17 type  2   force =     0.00000025   -0.00000000   -0.00000001
     atom   18 type  2   force =     0.00000040   -0.00000000   -0.00000001
     atom   19 type  1   force =    -0.00000010   -0.00000003   -0.00000001
     atom   20 type  1   force =     0.00000190   -0.00000011   -0.00000001
     atom   21 type  2   force =    -0.00000058    0.00000000   -0.00000002
     atom   22 type  2   force =     0.00000109    0.00000000   -0.00000002
     atom   23 type  1   force =    -0.00000010    0.00000003   -0.00000001
     atom   24 type  1   force =     0.00000190    0.00000011   -0.00000001
     atom   25 type  1   force =    -0.00000000    0.00000000   -0.00000102
     atom   26 type  1   force =    -0.00000007    0.00000000   -0.00000117
     atom   27 type  1   force =     0.00000005   -0.00000000   -0.00000294
     atom   28 type  1   force =     0.00000008   -0.00000000   -0.00000192
     atom   29 type  2   force =    -0.00000069   -0.00000000   -0.00000547
     atom   30 type  2   force =     0.00000001   -0.00000000   -0.00000535
     atom   31 type  1   force =    -0.00000039    0.00000092   -0.00000150
     atom   32 type  1   force =     0.00000029    0.00000090   -0.00000149
     atom   33 type  2   force =    -0.00000057    0.00000000   -0.00000339
     atom   34 type  2   force =    -0.00000055    0.00000000   -0.00000313
     atom   35 type  1   force =    -0.00000039   -0.00000092   -0.00000150
     atom   36 type  1   force =     0.00000029   -0.00000090   -0.00000149
     atom   37 type  1   force =     0.00000005   -0.00000000   -0.00000129
     atom   38 type  1   force =     0.00000022    0.00000000   -0.00000104
     atom   39 type  1   force =    -0.00000034    0.00000000   -0.00000019
     atom   40 type  1   force =    -0.00000051   -0.00000000    0.00000031
     atom   41 type  3   force =    -0.00000001   -0.00000000    0.00000004
     atom   42 type  3   force =    -0.00000001    0.00000000   -0.00000004
     atom   43 type  3   force =    -0.00000003   -0.00000000    0.00000002
     atom   44 type  3   force =    -0.00000003    0.00000000   -0.00000002
     atom   45 type  3   force =    -0.00000001    0.00000024    0.00000001
     atom   46 type  3   force =    -0.00000001    0.00000024   -0.00000001
     atom   47 type  3   force =    -0.00000000    0.00000022   -0.00000000
     atom   48 type  3   force =    -0.00000000    0.00000022    0.00000000
     atom   49 type  3   force =    -0.00000001   -0.00000024    0.00000001
     atom   50 type  3   force =    -0.00000001   -0.00000024   -0.00000001
     atom   51 type  3   force =    -0.00000000   -0.00000022   -0.00000000
     atom   52 type  3   force =    -0.00000000   -0.00000022    0.00000000

     Total force =     0.000421     Total SCF correction =     0.000015
     Energy error            =      2.5E-07 Ry
     Gradient error          =      7.9E-05 Ry/Bohr

     bfgs converged in  26 scf cycles and  25 bfgs steps
     (criteria: energy <  1.0E-04 Ry, force <  1.0E-04 Ry/Bohr)

     End of BFGS Geometry Optimization

     Final energy             =   -3442.6296070950 Ry

     File /storage/home/mgm6007/ixd4/Maria/Strain0_Files/RuO2-110-0-012345/RuO2-110-0-012345.bfgs deleted, as requested
Begin final coordinates

ATOMIC_POSITIONS (crystal)
O             0.0013752032        0.5000000000        0.2616076275
O             0.5013723595        0.5000000000        0.2616078073
O            -0.0036770089        0.0000000000        0.2864740222
O             0.4963229923        0.0000000000        0.2864740194
Ru            0.2470506791        0.0000000000        0.3594965436
Ru            0.7470506698        0.0000000000        0.3594965441
O             0.2486688124        0.3084386485        0.3542127042
O             0.7486688479        0.3084386410        0.3542127062
Ru           -0.0015261590        0.5000000000        0.3555959054
Ru            0.4984739467        0.5000000000        0.3555958930
O             0.2486688124        0.6915613515        0.3542127042
O             0.7486688479        0.6915613590        0.3542127062
O            -0.0027393454        0.0000000000        0.4122471832
O             0.4972606582        0.0000000000        0.4122471769
O            -0.0026166727        0.5000000000        0.4439779076
O             0.4973832887        0.5000000000        0.4439779038
Ru           -0.0029408076        0.0000000000        0.5000010000
Ru            0.4970591976        0.0000000000        0.5000010000
O             0.2469865289        0.1906927284        0.5000010000
O             0.7469865470        0.1906927160        0.5000010000
Ru            0.2475488853        0.5000000000        0.5000010000
Ru            0.7475488853        0.5000000000        0.5000010000
O             0.2469865289        0.8093082716        0.5000010000
O             0.7469865470        0.8093082840        0.5000010000
O            -0.0026166727        0.5000000000        0.5560230924
O             0.4973832887        0.5000000000        0.5560230962
O            -0.0027393454        0.0000000000        0.5877538168
O             0.4972606582        0.0000000000        0.5877538231
Ru            0.2470506791        0.0000000000        0.6405044564
Ru            0.7470506698        0.0000000000        0.6405044559
O             0.2486688124        0.3084386485        0.6457882958
O             0.7486688479        0.3084386410        0.6457882938
Ru           -0.0015261590        0.5000000000        0.6444050946
Ru            0.4984739467        0.5000000000        0.6444051070
O             0.2486688124        0.6915613515        0.6457882958
O             0.7486688479        0.6915613590        0.6457882938
O            -0.0036770089        0.0000000000        0.7135279778
O             0.4963229923        0.0000000000        0.7135279806
O             0.0013752032        0.5000000000        0.7383933725
O             0.5013723595        0.5000000000        0.7383931927
H             0.1504783528        0.5000000000        0.2519193624
H             0.1504783528        0.5000000000        0.7480806376
H             0.6504809805        0.5000000000        0.2519191982
H             0.6504809805        0.5000000000        0.7480808018
H            -0.0061691030        0.1318887598        0.2616488338
H            -0.0061691030        0.1318887598        0.7383511662
H             0.4938308924        0.1318887541        0.2616488325
H             0.4938308924        0.1318887541        0.7383511675
H            -0.0061691030        0.8681112402        0.2616488338
H            -0.0061691030        0.8681112402        0.7383511662
H             0.4938308924        0.8681112459        0.2616488325
H             0.4938308924        0.8681112459        0.7383511675
End final coordinates

     Writing all to output data dir /storage/home/mgm6007/ixd4/Maria/Strain0_Files/RuO2-110-0-012345/RuO2-110-0-012345.save/

     General routines

     Parallel routines

     Environ routines

   This run was terminated on:  21: 3:59  22Jul2023

   JOB DONE.