     Program PWSCF v.7.2 starts on 23Jul2023 at 14:23:16
        Git branch: heads/qe-7.2
        Last git commit: b4c5e8deeb7d1863e7553a87b45f8d22c21926a5
        Last git commit date: Mon Mar 27 16:12:09 2023 +0000
        Last git commit subject: Merge branch 'merge_fix_hubbard' into 'develop'

     Reading input from RuO2-110-0-2345.in

     Current dimensions of program PWSCF are:
     Max number of different atomic species (ntypx) = 10
     Max number of k-points (npk) =  40000
     Max angular momentum in pseudopotentials (lmaxx) =  4

     Reading input from environ.in:
     * Environ restarting
     * setting up water environment
     * using electronic solvent mode
     * setting boundary derivatives method to SCCS default

     File /storage/home/mgm6007/ixd4/Maria/Strain2_Files/RuO2-110-0-2345/RuO2-110-0-2345.update deleted, as requested

     File /storage/home/mgm6007/ixd4/Maria/Strain2_Files/RuO2-110-0-2345/RuO2-110-0-2345.bfgs deleted, as requested
     file O.pbe-n-kjpaw_psl.0.1.UPF: wavefunction(s)  2P renormalized
     Found identity + ( -0.5000  0.0000  0.0000) symmetry
     This is a supercell, fractional translations are disabled
     Message from routine setup:
     using ibrav=0 with symmetry is DISCOURAGED, use correct ibrav instead

     R & G space division:  proc/nbgrp/npool/nimage =      20
     Subspace diagonalization in iterative solution of the eigenvalue problem:
     one sub-group per band group will be used

     Using Slab Decomposition

     bravais-lattice index     =            0
     lattice parameter (alat)  =      12.2467  a.u.
     unit-cell volume          =    5883.2137 (a.u.)^3
     number of atoms/cell      =           48
     number of atomic types    =            3
     number of electrons       =       368.00
     number of Kohn-Sham states=          221
     kinetic-energy cutoff     =      50.0000  Ry
     charge density cutoff     =     500.0000  Ry
     scf convergence threshold =      1.0E-09
     mixing beta               =       0.7000
     number of iterations used =            8  local-TF  mixing
     energy convergence thresh.=      1.0E-04
     force convergence thresh. =      1.0E-04
     Exchange-correlation= PBE
                           (   1   4   3   4   0   0   0)
     nstep                     =          200

                                  Environ Setup Summary

          O. Andreussi, I. Dabo and N. Marzari, J. Chem. Phys. 136, 064102 (2012)

     in publications or presentations arising from this work.

     Parameters

     compensation onset threshold      =               0.1000E+00
     static permittivity               =                    78.30
     surface tension in input (dyn/cm) =                    47.90
     surface tension in internal units =               0.6153E-04
     external pressure in input (GPa)  =                    -0.36
     external pressure in inter. units =              -0.2447E-04

     Solvent Boundary

     solvent mode                      =               electronic
     derivatives method                =                    chain
     numerical core for derivatives    =                      fft
     switching function adopted        =                     SCCS
     density limit for vacuum region   =               0.5000E-02
     density limit for bulk solvent    =               0.1000E-03

     Electrostatic Setup

     electrostatic problem to solve    =              generalized
     numerical solver adopted          =                       cg
     type of auxiliary density adopted =                     none
     numerical core for poisson        =                      fft
     type of pbc corrections           =                parabolic
     numerical core for corrections    =                      1da

     celldm(1)=  12.246684  celldm(2)=   0.000000  celldm(3)=   0.000000
     celldm(4)=   0.000000  celldm(5)=   0.000000  celldm(6)=   0.000000

     crystal axes: (cart. coord. in units of alat)
               a(1) = (   1.000000   0.000000   0.000000 )
               a(2) = (   0.000000   0.937861   0.000000 )
               a(3) = (   0.000000   0.000000   3.415235 )

     reciprocal axes: (cart. coord. in units 2 pi/alat)
               b(1) = (  1.000000  0.000000  0.000000 )
               b(2) = (  0.000000  1.066256  0.000000 )
               b(3) = (  0.000000  0.000000  0.292806 )

     PseudoPot. # 1 for O  read from file:
     /gpfs/group/ixd4/default/Simon/pseudopotentials/materialscloud/SSSP_1.3.0_PBE_efficiency/O.pbe-n-kjpaw_psl.0.1.UPF
     MD5 check sum: 0234752ac141de4415c5fc33072bef88
     Pseudo is Projector augmented-wave + core cor, Zval =  6.0
     Generated using "atomic" code by A. Dal Corso  v.5.0.99 svn rev. 10869
     Shape of augmentation charge: BESSEL
     Using radial grid of 1095 points,  4 beta functions with:
                l(1) =   0
                l(2) =   0
                l(3) =   1
                l(4) =   1
     Q(r) pseudized with 0 coefficients

     PseudoPot. # 2 for Ru read from file:
     /gpfs/group/ixd4/default/Simon/pseudopotentials/materialscloud/SSSP_1.3.0_PBE_efficiency/Ru_ONCV_PBE-1.0.oncvpsp.upf
     MD5 check sum: be037bb81c227cfb9b1461a9f099f4bd
     Pseudo is Norm-conserving, Zval = 16.0
     Generated using ONCVPSP code by D. R. Hamann
     Using radial grid of 1458 points,  6 beta functions with:
                l(1) =   0
                l(2) =   0
                l(3) =   1
                l(4) =   1
                l(5) =   2
                l(6) =   2

     PseudoPot. # 3 for H  read from file:
     /gpfs/group/ixd4/default/Simon/pseudopotentials/materialscloud/SSSP_1.3.0_PBE_efficiency/H.pbe-rrkjus_psl.1.0.0.UPF
     MD5 check sum: f52b6d4d1c606e5624b1dc7b2218f220
     Pseudo is Ultrasoft, Zval =  1.0
     Generated using "atomic" code by A. Dal Corso  v.5.1
     Using radial grid of  929 points,  2 beta functions with:
                l(1) =   0
                l(2) =   0
     Q(r) pseudized with 0 coefficients

     atomic species   valence    mass     pseudopotential
        O              6.00    15.99940     O ( 1.00)
        Ru            16.00   101.07000     Ru( 1.00)
        H              1.00     1.00794     H ( 1.00)

      8 Sym. Ops., with inversion, found

   Cartesian axes

     site n.     atom                  positions (alat units)
         1           O   tau(   1) = (   0.0000000   0.4689304   0.9188868  )
         2           O   tau(   2) = (   0.5000000   0.4689304   0.9188868  )
         3           O   tau(   3) = (   0.0000000   0.0000000   0.9887375  )
         4           O   tau(   4) = (   0.5000000   0.0000000   0.9887375  )
         5           Ru  tau(   5) = (   0.2500000   0.0000000   1.2319092  )
         6           Ru  tau(   6) = (   0.7500000   0.0000000   1.2319092  )
         7           O   tau(   7) = (   0.2500000   0.2894069   1.2128372  )
         8           O   tau(   8) = (   0.7500000   0.2894069   1.2128372  )
         9           Ru  tau(   9) = (   0.0000000   0.4689304   1.1958188  )
        10           Ru  tau(  10) = (   0.5000000   0.4689304   1.1958188  )
        11           O   tau(  11) = (   0.2500000   0.6484539   1.2128372  )
        12           O   tau(  12) = (   0.7500000   0.6484539   1.2128372  )
        13           O   tau(  13) = (   0.0000000   0.0000000   1.4095095  )
        14           O   tau(  14) = (   0.5000000   0.0000000   1.4095095  )
        15           O   tau(  15) = (   0.0000000   0.4689304   1.5157787  )
        16           O   tau(  16) = (   0.5000000   0.4689304   1.5157789  )
        17           Ru  tau(  17) = (   0.0000000   0.0000000   1.7076210  )
        18           Ru  tau(  18) = (   0.5000000   0.0000000   1.7076210  )
        19           O   tau(  19) = (   0.2500000   0.1768900   1.7076210  )
        20           O   tau(  20) = (   0.7500000   0.1768900   1.7076210  )
        21           Ru  tau(  21) = (   0.2500000   0.4689304   1.7076210  )
        22           Ru  tau(  22) = (   0.7500000   0.4689304   1.7076210  )
        23           O   tau(  23) = (   0.2500000   0.7609718   1.7076210  )
        24           O   tau(  24) = (   0.7500000   0.7609718   1.7076210  )
        25           O   tau(  25) = (   0.0000000   0.4689304   1.8994599  )
        26           O   tau(  26) = (   0.5000000   0.4689304   1.8994597  )
        27           O   tau(  27) = (   0.0000000   0.0000000   2.0057291  )
        28           O   tau(  28) = (   0.5000000   0.0000000   2.0057291  )
        29           Ru  tau(  29) = (   0.2500000   0.0000000   2.1833294  )
        30           Ru  tau(  30) = (   0.7500000   0.0000000   2.1833294  )
        31           O   tau(  31) = (   0.2500000   0.2894069   2.2024014  )
        32           O   tau(  32) = (   0.7500000   0.2894069   2.2024014  )
        33           Ru  tau(  33) = (   0.0000000   0.4689304   2.2194198  )
        34           Ru  tau(  34) = (   0.5000000   0.4689304   2.2194198  )
        35           O   tau(  35) = (   0.2500000   0.6484539   2.2024014  )
        36           O   tau(  36) = (   0.7500000   0.6484539   2.2024014  )
        37           O   tau(  37) = (   0.0000000   0.0000000   2.4265046  )
        38           O   tau(  38) = (   0.5000000   0.0000000   2.4265045  )
        39           O   tau(  39) = (   0.0000000   0.4689304   2.4963518  )
        40           O   tau(  40) = (   0.5000000   0.4689304   2.4963518  )
        41           H   tau(  41) = (   0.0000000   0.1254112   0.9020390  )
        42           H   tau(  42) = (   0.0000000   0.1254112   2.5131962  )
        43           H   tau(  43) = (   0.5000000   0.1254112   0.9020390  )
        44           H   tau(  44) = (   0.5000000   0.1254112   2.5131962  )
        45           H   tau(  45) = (   0.0000000   0.8124497   0.9020390  )
        46           H   tau(  46) = (   0.0000000   0.8124497   2.5131962  )
        47           H   tau(  47) = (   0.5000000   0.8124496   0.9020390  )
        48           H   tau(  48) = (   0.5000000   0.8124496   2.5131962  )

     number of k points=     1  Marzari-Vanderbilt smearing, width (Ry)=  0.0300
                       cart. coord. in units 2pi/alat
        k(    1) = (   0.2500000   0.2665641   0.0000000), wk =   2.0000000

     Check: negative core charge=   -0.000001

     Initial potential from superposition of free atoms

     starting charge     367.9933, renormalised to     368.0000

     add environment contribution to local potential
     Polarization accuracy = 6.7E-12, # of iterations =  19

     negative rho (up, down):  3.047E-05 0.000E+00
     Starting wfcs are  240 randomized atomic wfcs
     Checking if some PAW data can be deallocated...

     Self-consistent Calculation

     iteration #  1     ecut=    50.00 Ry     beta= 0.70
     Davidson diagonalization with overlap
     ethr =  1.00E-02,  avg # of iterations =  2.0

     negative rho (up, down):  8.448E-08 0.000E+00

     total energy              =   -3435.22310638 Ry
     estimated scf accuracy    <      10.05576712 Ry
     electrostatic embedding   =      -0.00167492 Ry
     cavitation energy         =       0.01899542 Ry
[...]
     atom   27 type  1   force =    -0.00000000    0.00000000  -37.90176581
     atom   28 type  1   force =     0.00000000    0.00000000  -37.90176883
     atom   29 type  2   force =     0.00000244   -0.00000000 -163.89924244
     atom   30 type  2   force =    -0.00000244    0.00000000 -163.89924244
     atom   31 type  1   force =    -0.00000308    0.72189263  -62.54086714
     atom   32 type  1   force =     0.00000308    0.72189263  -62.54086714
     atom   33 type  2   force =    -0.00000000    0.00000000 -168.97820496
     atom   34 type  2   force =     0.00000000    0.00000000 -168.97818474
     atom   35 type  1   force =    -0.00000308   -0.72189263  -62.54086714
     atom   36 type  1   force =     0.00000308   -0.72189263  -62.54086714
     atom   37 type  1   force =     0.00000000    0.00000000  -89.43736730
     atom   38 type  1   force =     0.00000000    0.00000000  -89.43736585
     atom   39 type  1   force =    -0.00000000    0.00000000  -96.82578207
     atom   40 type  1   force =     0.00000000    0.00000000  -96.82577744
     atom   41 type  3   force =    -0.00000000   -2.24307452   16.68295943
     atom   42 type  3   force =    -0.00000000   -2.24307452  -16.68295943
     atom   43 type  3   force =     0.00000000   -2.24307581   16.68296107
     atom   44 type  3   force =     0.00000000   -2.24307581  -16.68296107
     atom   45 type  3   force =     0.00000000    2.24307452   16.68295943
     atom   46 type  3   force =     0.00000000    2.24307452  -16.68295943
     atom   47 type  3   force =    -0.00000000    2.24307581   16.68296107
     atom   48 type  3   force =    -0.00000000    2.24307581  -16.68296107
     The core correction contribution to forces
     atom    1 type  1   force =     0.00000000   -0.00000000   -0.00972650
     atom    2 type  1   force =    -0.00000000   -0.00000000   -0.00972651
     atom    3 type  1   force =     0.00000000    0.00000000    0.01334236
     atom    4 type  1   force =    -0.00000000    0.00000000    0.01334232
     atom    5 type  2   force =     0.00000000    0.00000000    0.00000000
     atom    6 type  2   force =     0.00000000    0.00000000    0.00000000
     atom    7 type  1   force =     0.00000000   -0.00017679    0.00053808
     atom    8 type  1   force =    -0.00000000   -0.00017679    0.00053808
     atom    9 type  2   force =     0.00000000    0.00000000    0.00000000
     atom   10 type  2   force =     0.00000000    0.00000000    0.00000000
     atom   11 type  1   force =     0.00000000    0.00017679    0.00053808
     atom   12 type  1   force =    -0.00000000    0.00017679    0.00053808
     atom   13 type  1   force =     0.00000000    0.00000000    0.00257075
     atom   14 type  1   force =    -0.00000000    0.00000000    0.00257075
     atom   15 type  1   force =     0.00000000    0.00000000   -0.00213933
     atom   16 type  1   force =     0.00000000    0.00000000   -0.00213933
     atom   17 type  2   force =     0.00000000    0.00000000    0.00000000
     atom   18 type  2   force =     0.00000000    0.00000000    0.00000000
     atom   19 type  1   force =    -0.00000000   -0.00008889   -0.00000193
     atom   20 type  1   force =     0.00000000   -0.00008889   -0.00000193
     atom   21 type  2   force =     0.00000000    0.00000000    0.00000000
     atom   22 type  2   force =     0.00000000    0.00000000    0.00000000
     atom   23 type  1   force =    -0.00000000    0.00008833   -0.00000193
     atom   24 type  1   force =     0.00000000    0.00008833   -0.00000193
     atom   25 type  1   force =    -0.00000000    0.00000000    0.00213715
     atom   26 type  1   force =     0.00000000    0.00000000    0.00213715
     atom   27 type  1   force =     0.00000000    0.00000000   -0.00257273
     atom   28 type  1   force =    -0.00000000    0.00000000   -0.00257273
     atom   29 type  2   force =     0.00000000    0.00000000    0.00000000
     atom   30 type  2   force =     0.00000000    0.00000000    0.00000000
     atom   31 type  1   force =     0.00000000   -0.00017651   -0.00053968
     atom   32 type  1   force =    -0.00000000   -0.00017651   -0.00053968
     atom   33 type  2   force =     0.00000000    0.00000000    0.00000000
     atom   34 type  2   force =     0.00000000    0.00000000    0.00000000
     atom   35 type  1   force =     0.00000000    0.00017651   -0.00053968
     atom   36 type  1   force =    -0.00000000    0.00017651   -0.00053968
     atom   37 type  1   force =    -0.00000000    0.00000000   -0.01334652
     atom   38 type  1   force =     0.00000000    0.00000000   -0.01334648
     atom   39 type  1   force =    -0.00000000   -0.00000000    0.00972415
     atom   40 type  1   force =    -0.00000000   -0.00000000    0.00972417
     atom   41 type  3   force =     0.00000000    0.00000000    0.00000000
     atom   42 type  3   force =     0.00000000    0.00000000    0.00000000
     atom   43 type  3   force =     0.00000000    0.00000000    0.00000000
     atom   44 type  3   force =     0.00000000    0.00000000    0.00000000
     atom   45 type  3   force =     0.00000000    0.00000000    0.00000000
     atom   46 type  3   force =     0.00000000    0.00000000    0.00000000
     atom   47 type  3   force =     0.00000000    0.00000000    0.00000000
     atom   48 type  3   force =     0.00000000    0.00000000    0.00000000
     The Hubbard contrib.    to forces
     atom    1 type  1   force =     0.00000000    0.00000000    0.00000000
     atom    2 type  1   force =     0.00000000    0.00000000    0.00000000
     atom    3 type  1   force =     0.00000000    0.00000000    0.00000000
     atom    4 type  1   force =     0.00000000    0.00000000    0.00000000
     atom    5 type  2   force =     0.00000000    0.00000000    0.00000000
     atom    6 type  2   force =     0.00000000    0.00000000    0.00000000
     atom    7 type  1   force =     0.00000000    0.00000000    0.00000000
     atom    8 type  1   force =     0.00000000    0.00000000    0.00000000
     atom    9 type  2   force =     0.00000000    0.00000000    0.00000000
     atom   10 type  2   force =     0.00000000    0.00000000    0.00000000
     atom   11 type  1   force =     0.00000000    0.00000000    0.00000000
     atom   12 type  1   force =     0.00000000    0.00000000    0.00000000
     atom   13 type  1   force =     0.00000000    0.00000000    0.00000000
     atom   14 type  1   force =     0.00000000    0.00000000    0.00000000
     atom   15 type  1   force =     0.00000000    0.00000000    0.00000000
     atom   16 type  1   force =     0.00000000    0.00000000    0.00000000
     atom   17 type  2   force =     0.00000000    0.00000000    0.00000000
     atom   18 type  2   force =     0.00000000    0.00000000    0.00000000
     atom   19 type  1   force =     0.00000000    0.00000000    0.00000000
     atom   20 type  1   force =     0.00000000    0.00000000    0.00000000
     atom   21 type  2   force =     0.00000000    0.00000000    0.00000000
     atom   22 type  2   force =     0.00000000    0.00000000    0.00000000
     atom   23 type  1   force =     0.00000000    0.00000000    0.00000000
     atom   24 type  1   force =     0.00000000    0.00000000    0.00000000
     atom   25 type  1   force =     0.00000000    0.00000000    0.00000000
     atom   26 type  1   force =     0.00000000    0.00000000    0.00000000
     atom   27 type  1   force =     0.00000000    0.00000000    0.00000000
     atom   28 type  1   force =     0.00000000    0.00000000    0.00000000
     atom   29 type  2   force =     0.00000000    0.00000000    0.00000000
     atom   30 type  2   force =     0.00000000    0.00000000    0.00000000
     atom   31 type  1   force =     0.00000000    0.00000000    0.00000000
     atom   32 type  1   force =     0.00000000    0.00000000    0.00000000
     atom   33 type  2   force =     0.00000000    0.00000000    0.00000000
     atom   34 type  2   force =     0.00000000    0.00000000    0.00000000
     atom   35 type  1   force =     0.00000000    0.00000000    0.00000000
     atom   36 type  1   force =     0.00000000    0.00000000    0.00000000
     atom   37 type  1   force =     0.00000000    0.00000000    0.00000000
     atom   38 type  1   force =     0.00000000    0.00000000    0.00000000
     atom   39 type  1   force =     0.00000000    0.00000000    0.00000000
     atom   40 type  1   force =     0.00000000    0.00000000    0.00000000
     atom   41 type  3   force =     0.00000000    0.00000000    0.00000000
     atom   42 type  3   force =     0.00000000    0.00000000    0.00000000
     atom   43 type  3   force =     0.00000000    0.00000000    0.00000000
     atom   44 type  3   force =     0.00000000    0.00000000    0.00000000
     atom   45 type  3   force =     0.00000000    0.00000000    0.00000000
     atom   46 type  3   force =     0.00000000    0.00000000    0.00000000
     atom   47 type  3   force =     0.00000000    0.00000000    0.00000000
     atom   48 type  3   force =     0.00000000    0.00000000    0.00000000
     The SCF correction term to forces
     atom    1 type  1   force =    -0.00000000   -0.00000002    0.00000337
     atom    2 type  1   force =     0.00000000   -0.00000002    0.00000979
     atom    3 type  1   force =    -0.00000000    0.00000003    0.00001521
     atom    4 type  1   force =     0.00000000    0.00000003    0.00002043
     atom    5 type  2   force =    -0.00000494    0.00000015    0.00003421
     atom    6 type  2   force =     0.00000494    0.00000015    0.00003421
     atom    7 type  1   force =     0.00000226   -0.00000544    0.00000996
     atom    8 type  1   force =    -0.00000226   -0.00000544    0.00000996
     atom    9 type  2   force =     0.00000000   -0.00000014    0.00001157
     atom   10 type  2   force =    -0.00000000   -0.00000014    0.00001615
     atom   11 type  1   force =     0.00000226    0.00000540    0.00000994
     atom   12 type  1   force =    -0.00000226    0.00000540    0.00000994
     atom   13 type  1   force =     0.00000000    0.00000007    0.00001642
     atom   14 type  1   force =    -0.00000000    0.00000007    0.00001359
     atom   15 type  1   force =     0.00000000   -0.00000008    0.00001563
     atom   16 type  1   force =    -0.00000000   -0.00000008    0.00001159
     atom   17 type  2   force =     0.00000000    0.00000023    0.00001499
     atom   18 type  2   force =    -0.00000000    0.00000023    0.00001499
     atom   19 type  1   force =    -0.00000303   -0.00000641    0.00000535
     atom   20 type  1   force =     0.00000303   -0.00000641    0.00000535
     atom   21 type  2   force =     0.00000032   -0.00000029    0.00001415
     atom   22 type  2   force =    -0.00000032   -0.00000029    0.00001415
     atom   23 type  1   force =    -0.00000303    0.00000650    0.00000535
     atom   24 type  1   force =     0.00000303    0.00000650    0.00000535
     atom   25 type  1   force =    -0.00000000   -0.00000008   -0.00000905
     atom   26 type  1   force =     0.00000000   -0.00000008   -0.00000501
     atom   27 type  1   force =    -0.00000000    0.00000007   -0.00001317
     atom   28 type  1   force =     0.00000000    0.00000007   -0.00001034
     atom   29 type  2   force =    -0.00000494    0.00000015   -0.00004092
     atom   30 type  2   force =     0.00000494    0.00000015   -0.00004092
     atom   31 type  1   force =     0.00000226   -0.00000613   -0.00001277
     atom   32 type  1   force =    -0.00000226   -0.00000613   -0.00001277
     atom   33 type  2   force =    -0.00000000   -0.00000014   -0.00002034
     atom   34 type  2   force =     0.00000000   -0.00000014   -0.00002492
     atom   35 type  1   force =     0.00000226    0.00000609   -0.00001274
     atom   36 type  1   force =    -0.00000226    0.00000609   -0.00001274
     atom   37 type  1   force =     0.00000000    0.00000003   -0.00002007
     atom   38 type  1   force =    -0.00000000    0.00000003   -0.00002530
     atom   39 type  1   force =     0.00000000   -0.00000002   -0.00000719
     atom   40 type  1   force =    -0.00000000   -0.00000002   -0.00001361
     atom   41 type  3   force =    -0.00000000   -0.00000012    0.00000194
     atom   42 type  3   force =     0.00000000   -0.00000010   -0.00000249
     atom   43 type  3   force =     0.00000000    0.00000072    0.00000189
     atom   44 type  3   force =    -0.00000000    0.00000074   -0.00000244
     atom   45 type  3   force =    -0.00000000    0.00000013    0.00000194
     atom   46 type  3   force =     0.00000000    0.00000010   -0.00000249
     atom   47 type  3   force =     0.00000000   -0.00000071    0.00000188
     atom   48 type  3   force =    -0.00000000   -0.00000074   -0.00000243

     Total force =     0.000152     Total SCF correction =     0.000114
     SCF correction compared to forces is large: reduce conv_thr to get better values

     BFGS Geometry Optimization
     Energy error            =      0.0E+00 Ry
     Gradient error          =      4.0E-05 Ry/Bohr

     bfgs converged in   1 scf cycles and   0 bfgs steps
     (criteria: energy <  1.0E-04 Ry, force <  1.0E-04 Ry/Bohr)

     End of BFGS Geometry Optimization

     Final energy             =   -3437.4986412550 Ry
Begin final coordinates

ATOMIC_POSITIONS (crystal)
O             0.0000000000        0.5000000000        0.2690551970
O             0.5000000000        0.5000000000        0.2690552001
O             0.0000000000        0.0000000000        0.2895078771
O             0.5000000000        0.0000000000        0.2895078794
Ru            0.2499999979        0.0000000000        0.3607099140
Ru            0.7500000021        0.0000000000        0.3607099140
O             0.2500000091        0.3085819625        0.3551255307
O             0.7499999909        0.3085819625        0.3551255307
Ru            0.0000000000        0.5000000000        0.3501424537
Ru            0.5000000000        0.5000000000        0.3501424553
O             0.2500000091        0.6914180375        0.3551255307
O             0.7499999909        0.6914180375        0.3551255307
O             0.0000000000        0.0000000000        0.4127122880
O             0.5000000000        0.0000000000        0.4127122900
O             0.0000000000        0.5000000000        0.4438285058
O             0.5000000000        0.5000000000        0.4438285566
Ru            0.0000000000        0.0000000000        0.5000010000
Ru            0.5000000000        0.0000000000        0.5000010000
O             0.2499999954        0.1886100690        0.5000010000
O             0.7500000046        0.1886100690        0.5000010000
Ru            0.2499999638        0.5000000000        0.5000010000
Ru            0.7500000362        0.5000000000        0.5000010000
O             0.2499999954        0.8113909310        0.5000010000
O             0.7500000046        0.8113909310        0.5000010000
O             0.0000000000        0.5000000000        0.5561724942
O             0.5000000000        0.5000000000        0.5561724434
O             0.0000000000        0.0000000000        0.5872887120
O             0.5000000000        0.0000000000        0.5872887100
Ru            0.2499999979        0.0000000000        0.6392910860
Ru            0.7500000021        0.0000000000        0.6392910860
O             0.2500000091        0.3085819625        0.6448754693
O             0.7499999909        0.3085819625        0.6448754693
Ru            0.0000000000        0.5000000000        0.6498585463
Ru            0.5000000000        0.5000000000        0.6498585447
O             0.2500000091        0.6914180375        0.6448754693
O             0.7499999909        0.6914180375        0.6448754693
O             0.0000000000        0.0000000000        0.7104941229
O             0.5000000000        0.0000000000        0.7104941206
O             0.0000000000        0.5000000000        0.7309458030
O             0.5000000000        0.5000000000        0.7309457999
H             0.0000000000        0.1337204970        0.2641220729
H             0.0000000000        0.1337204970        0.7358779271
H             0.5000000000        0.1337204996        0.2641220757
H             0.5000000000        0.1337204996        0.7358779243
H             0.0000000000        0.8662795030        0.2641220729
H             0.0000000000        0.8662795030        0.7358779271
H             0.5000000000        0.8662795004        0.2641220757
H             0.5000000000        0.8662795004        0.7358779243
End final coordinates

     Writing all to output data dir /storage/home/mgm6007/ixd4/Maria/Strain2_Files/RuO2-110-0-2345/RuO2-110-0-2345.save/

     General routines

     Parallel routines

     Environ routines

   This run was terminated on:  16: 4:48  23Jul2023

   JOB DONE.