     Program PWSCF v.7.2 starts on 17Jul2023 at  0: 2:32
        Git branch: heads/qe-7.2
        Last git commit: b4c5e8deeb7d1863e7553a87b45f8d22c21926a5
        Last git commit date: Mon Mar 27 16:12:09 2023 +0000
        Last git commit subject: Merge branch 'merge_fix_hubbard' into 'develop'

     Reading input from RuO2-110-0-.in
Warning: card  H 1.007940 H.PBE-RRKJUS_PSL.1.0.0.UPF ignored

     Current dimensions of program PWSCF are:
     Max number of different atomic species (ntypx) = 10
     Max number of k-points (npk) =  40000
     Max angular momentum in pseudopotentials (lmaxx) =  4

     Reading input from environ.in:
     * Environ restarting
     * setting up water environment
     * using electronic solvent mode
     * setting boundary derivatives method to SCCS default

     file O.pbe-n-kjpaw_psl.0.1.UPF: wavefunction(s)  2P renormalized
     Message from routine setup:
     using ibrav=0 with symmetry is DISCOURAGED, use correct ibrav instead

     R & G space division:  proc/nbgrp/npool/nimage =      20
     Subspace diagonalization in iterative solution of the eigenvalue problem:
     one sub-group per band group will be used

     Using Slab Decomposition

     bravais-lattice index     =            0
     lattice parameter (alat)  =      12.2467  a.u.
     unit-cell volume          =    6016.1196 (a.u.)^3
     number of atoms/cell      =           40
     number of atomic types    =            2
     number of electrons       =       360.00
     number of Kohn-Sham states=          216
     kinetic-energy cutoff     =      50.0000  Ry
     charge density cutoff     =     500.0000  Ry
     scf convergence threshold =      1.0E-09
     mixing beta               =       0.7000
     number of iterations used =            8  local-TF  mixing
     energy convergence thresh.=      1.0E-04
     force convergence thresh. =      1.0E-04
     Exchange-correlation= PBE
                           (   1   4   3   4   0   0   0)
     nstep                     =          200

                                  Environ Setup Summary

          O. Andreussi, I. Dabo and N. Marzari, J. Chem. Phys. 136, 064102 (2012)

     in publications or presentations arising from this work.

     Parameters

     compensation onset threshold      =               0.1000E+00
     static permittivity               =                    78.30
     surface tension in input (dyn/cm) =                    47.90
     surface tension in internal units =               0.6153E-04
     external pressure in input (GPa)  =                    -0.36
     external pressure in inter. units =              -0.2447E-04

     Solvent Boundary

     solvent mode                      =               electronic
     derivatives method                =                    chain
     numerical core for derivatives    =                      fft
     switching function adopted        =                     SCCS
     density limit for vacuum region   =               0.5000E-02
     density limit for bulk solvent    =               0.1000E-03

     Electrostatic Setup

     electrostatic problem to solve    =              generalized
     numerical solver adopted          =                       cg
     type of auxiliary density adopted =                     none
     numerical core for poisson        =                      fft
     type of pbc corrections           =                parabolic
     numerical core for corrections    =                      1da

     celldm(1)=  12.246684  celldm(2)=   0.000000  celldm(3)=   0.000000
     celldm(4)=   0.000000  celldm(5)=   0.000000  celldm(6)=   0.000000

     crystal axes: (cart. coord. in units of alat)
               a(1) = (   1.000000   0.000000   0.000000 )
               a(2) = (   0.000000   0.937861   0.000000 )
               a(3) = (   0.000000   0.000000   3.492388 )

     reciprocal axes: (cart. coord. in units 2 pi/alat)
               b(1) = (  1.000000  0.000000  0.000000 )
               b(2) = (  0.000000  1.066256  0.000000 )
               b(3) = (  0.000000  0.000000  0.286337 )

     PseudoPot. # 1 for O  read from file:
     /gpfs/group/ixd4/default/Simon/pseudopotentials/materialscloud/SSSP_1.3.0_PBE_efficiency/O.pbe-n-kjpaw_psl.0.1.UPF
     MD5 check sum: 0234752ac141de4415c5fc33072bef88
     Pseudo is Projector augmented-wave + core cor, Zval =  6.0
     Generated using "atomic" code by A. Dal Corso  v.5.0.99 svn rev. 10869
     Shape of augmentation charge: BESSEL
     Using radial grid of 1095 points,  4 beta functions with:
                l(1) =   0
                l(2) =   0
                l(3) =   1
                l(4) =   1
     Q(r) pseudized with 0 coefficients

     PseudoPot. # 2 for Ru read from file:
     /gpfs/group/ixd4/default/Simon/pseudopotentials/materialscloud/SSSP_1.3.0_PBE_efficiency/Ru_ONCV_PBE-1.0.oncvpsp.upf
     MD5 check sum: be037bb81c227cfb9b1461a9f099f4bd
     Pseudo is Norm-conserving, Zval = 16.0
     Generated using ONCVPSP code by D. R. Hamann
     Using radial grid of 1458 points,  6 beta functions with:
                l(1) =   0
                l(2) =   0
                l(3) =   1
                l(4) =   1
                l(5) =   2
                l(6) =   2

     atomic species   valence    mass     pseudopotential
        O              6.00    15.99940     O ( 1.00)
        Ru            16.00   101.07000     Ru( 1.00)

      8 Sym. Ops., with inversion, found

                                    s                        frac. trans.

      isym =  1     identity

 cryst.   s( 1) = (     1          0          0      )
                  (     0          1          0      )
                  (     0          0          1      )

 cart.    s( 1) = (  1.0000000  0.0000000  0.0000000 )
                  (  0.0000000  1.0000000  0.0000000 )
                  (  0.0000000  0.0000000  1.0000000 )

      isym =  2     180 deg rotation - cart. axis [0,0,1]

[...]

      isym =  4     180 deg rotation - cart. axis [1,0,0]

[...]

      isym =  5     inversion

[...]

      isym =  6     inv. 180 deg rotation - cart. axis [0,0,1]

[...]

      isym =  8     inv. 180 deg rotation - cart. axis [1,0,0]

 cryst.   s( 8) = (    -1          0          0      )
                  (     0          1          0      )
                  (     0          0          1      )

 cart.    s( 8) = ( -1.0000000  0.0000000  0.0000000 )
                  (  0.0000000  1.0000000  0.0000000 )
                  (  0.0000000  0.0000000  1.0000000 )

   Cartesian axes

     site n.     atom                  positions (alat units)
         1           O   tau(   1) = (   0.0000000   0.4689304   0.9415187  )
         2           O   tau(   2) = (   0.5000000   0.4689304   0.9415245  )
         3           O   tau(   3) = (   0.0000000   0.0000000   1.0618850  )
         4           O   tau(   4) = (   0.5000000   0.0000000   1.0618845  )
         5           Ru  tau(   5) = (   0.2500002   0.0000000   1.2350600  )
         6           Ru  tau(   6) = (   0.7499998   0.0000000   1.2350600  )
         7           O   tau(   7) = (   0.2500012   0.2891829   1.2509459  )
         8           O   tau(   8) = (   0.7499988   0.2891829   1.2509459  )
         9           Ru  tau(   9) = (   0.0000000   0.4689304   1.2195732  )
        10           Ru  tau(  10) = (   0.5000000   0.4689304   1.2195787  )
        11           O   tau(  11) = (   0.2500012   0.6486780   1.2509459  )
        12           O   tau(  12) = (   0.7499988   0.6486780   1.2509459  )
        13           O   tau(  13) = (   0.0000000   0.0000000   1.4396665  )
        14           O   tau(  14) = (   0.5000000   0.0000000   1.4396668  )
        15           O   tau(  15) = (   0.0000000   0.4689304   1.5497893  )
        16           O   tau(  16) = (   0.5000000   0.4689304   1.5498370  )
        17           Ru  tau(  17) = (   0.0000000   0.0000000   1.7461974  )
        18           Ru  tau(  18) = (   0.5000000   0.0000000   1.7461974  )
        19           O   tau(  19) = (   0.2499978   0.1815951   1.7461974  )
        20           O   tau(  20) = (   0.7500022   0.1815951   1.7461974  )
        21           Ru  tau(  21) = (   0.2499815   0.4689304   1.7461974  )
        22           Ru  tau(  22) = (   0.7500185   0.4689304   1.7461974  )
        23           O   tau(  23) = (   0.2499978   0.7562667   1.7461974  )
        24           O   tau(  24) = (   0.7500022   0.7562667   1.7461974  )
        25           O   tau(  25) = (   0.0000000   0.4689304   1.9426019  )
        26           O   tau(  26) = (   0.5000000   0.4689304   1.9425542  )
        27           O   tau(  27) = (   0.0000000   0.0000000   2.0527248  )
        28           O   tau(  28) = (   0.5000000   0.0000000   2.0527244  )
        29           Ru  tau(  29) = (   0.2500002   0.0000000   2.2573348  )
        30           Ru  tau(  30) = (   0.7499998   0.0000000   2.2573348  )
        31           O   tau(  31) = (   0.2500012   0.2891829   2.2414489  )
        32           O   tau(  32) = (   0.7499988   0.2891829   2.2414489  )
        33           Ru  tau(  33) = (   0.0000000   0.4689304   2.2728215  )
        34           Ru  tau(  34) = (   0.5000000   0.4689304   2.2728161  )
        35           O   tau(  35) = (   0.2500012   0.6486780   2.2414489  )
        36           O   tau(  36) = (   0.7499988   0.6486780   2.2414489  )
        37           O   tau(  37) = (   0.0000000   0.0000000   2.4305062  )
        38           O   tau(  38) = (   0.5000000   0.0000000   2.4305068  )
        39           O   tau(  39) = (   0.0000000   0.4689304   2.5508725  )
        40           O   tau(  40) = (   0.5000000   0.4689304   2.5508668  )

   Crystallographic axes

     site n.     atom                  positions (cryst. coord.)
         1           O   tau(   1) = (  0.0000000  0.5000000  0.2695917  )
         2           O   tau(   2) = (  0.5000000  0.5000000  0.2695933  )
         3           O   tau(   3) = (  0.0000000  0.0000000  0.3040570  )
         4           O   tau(   4) = (  0.5000000  0.0000000  0.3040569  )
         5           Ru  tau(   5) = (  0.2500002  0.0000000  0.3536434  )
         6           Ru  tau(   6) = (  0.7499998  0.0000000  0.3536434  )
         7           O   tau(   7) = (  0.2500012  0.3083431  0.3581922  )
         8           O   tau(   8) = (  0.7499988  0.3083431  0.3581922  )
         9           Ru  tau(   9) = (  0.0000000  0.5000000  0.3492090  )
        10           Ru  tau(  10) = (  0.5000000  0.5000000  0.3492106  )
        11           O   tau(  11) = (  0.2500012  0.6916569  0.3581922  )
        12           O   tau(  12) = (  0.7499988  0.6916569  0.3581922  )
        13           O   tau(  13) = (  0.0000000  0.0000000  0.4122298  )
        14           O   tau(  14) = (  0.5000000  0.0000000  0.4122299  )
        15           O   tau(  15) = (  0.0000000  0.5000000  0.4437621  )
        16           O   tau(  16) = (  0.5000000  0.5000000  0.4437758  )
        17           Ru  tau(  17) = (  0.0000000  0.0000000  0.5000010  )
        18           Ru  tau(  18) = (  0.5000000  0.0000000  0.5000010  )
[...]
     atom   29 type  2   force =     0.00001176   -0.00000253  178.49000180
     atom   30 type  2   force =    -0.00001176   -0.00000253  178.49000180
     atom   31 type  1   force =    -0.00001798   -1.11732139   62.41004976
     atom   32 type  1   force =     0.00001798   -1.11732139   62.41004976
     atom   33 type  2   force =    -0.00000000    0.00000301  175.84678524
     atom   34 type  2   force =    -0.00000000    0.00000301  175.84079750
     atom   35 type  1   force =    -0.00001798    1.11732209   62.41004699
     atom   36 type  1   force =     0.00001798    1.11732209   62.41004699
     atom   37 type  1   force =    -0.00000000   -0.00000036   95.81712577
     atom   38 type  1   force =    -0.00000000   -0.00000036   95.81722253
     atom   39 type  1   force =    -0.00000000    0.00000018  103.59825702
     atom   40 type  1   force =    -0.00000000    0.00000018  103.59834115
     The local contribution  to forces
     atom    1 type  1   force =    -0.00000000    0.00000000  102.14209111
     atom    2 type  1   force =     0.00000000    0.00000000  102.14212269
     atom    3 type  1   force =    -0.00000000    0.00000000   94.72260485
     atom    4 type  1   force =    -0.00000000    0.00000000   94.72269748
     atom    5 type  2   force =    -0.00001190   -0.00000000  178.57539726
     atom    6 type  2   force =     0.00001190    0.00000000  178.57539726
     atom    7 type  1   force =     0.00000837    1.12380493   62.60742982
     atom    8 type  1   force =    -0.00000837    1.12380493   62.60742982
     atom    9 type  2   force =    -0.00000000    0.00000000  175.92285330
     atom   10 type  2   force =     0.00000000    0.00000000  175.91683371
     atom   11 type  1   force =     0.00000837   -1.12380493   62.60742982
     atom   12 type  1   force =    -0.00000837   -1.12380493   62.60742982
     atom   13 type  1   force =    -0.00000000    0.00000000   39.09533607
     atom   14 type  1   force =     0.00000000    0.00000000   39.09522745
     atom   15 type  1   force =     0.00000000    0.00000000   27.34969852
     atom   16 type  1   force =     0.00000000    0.00000000   27.34870872
     atom   17 type  2   force =    -0.00000000    0.00000000   -0.00602212
     atom   18 type  2   force =     0.00000000    0.00000000   -0.00602211
     atom   19 type  1   force =    -0.00020571   -1.04630154   -0.00252406
     atom   20 type  1   force =     0.00020571   -1.04630154   -0.00252406
     atom   21 type  2   force =     0.00194398    0.00000000   -0.00620541
     atom   22 type  2   force =    -0.00194398    0.00000000   -0.00620541
     atom   23 type  1   force =    -0.00020571    1.04594462   -0.00252406
     atom   24 type  1   force =     0.00020571    1.04594462   -0.00252406
     atom   25 type  1   force =    -0.00000000    0.00000000  -27.35154929
     atom   26 type  1   force =     0.00000000    0.00000000  -27.35055962
     atom   27 type  1   force =     0.00000000    0.00000000  -39.09712505
     atom   28 type  1   force =     0.00000000    0.00000000  -39.09701643
     atom   29 type  2   force =    -0.00001191    0.00000000 -178.58795311
     atom   30 type  2   force =     0.00001191   -0.00000000 -178.58795311
     atom   31 type  1   force =     0.00000837    1.12383242  -62.61243527
     atom   32 type  1   force =    -0.00000837    1.12383242  -62.61243527
     atom   33 type  2   force =    -0.00000000    0.00000000 -175.93468888
     atom   34 type  2   force =     0.00000000    0.00000000 -175.92866950
     atom   35 type  1   force =     0.00000837   -1.12383242  -62.61243527
     atom   36 type  1   force =    -0.00000837   -1.12383242  -62.61243527
     atom   37 type  1   force =     0.00000000    0.00000000  -94.72461991
     atom   38 type  1   force =     0.00000000    0.00000000  -94.72471254
     atom   39 type  1   force =    -0.00000000    0.00000000 -102.14349053
     atom   40 type  1   force =     0.00000000    0.00000000 -102.14352214
     The core correction contribution to forces
     atom    1 type  1   force =     0.00000000    0.00000000   -0.01179194
     atom    2 type  1   force =    -0.00000000    0.00000000   -0.01179275
     atom    3 type  1   force =    -0.00000000   -0.00000000   -0.01092844
     atom    4 type  1   force =    -0.00000000   -0.00000000   -0.01092848
     atom    5 type  2   force =     0.00000000    0.00000000    0.00000000
     atom    6 type  2   force =     0.00000000    0.00000000    0.00000000
     atom    7 type  1   force =    -0.00000001   -0.00032024    0.00209282
     atom    8 type  1   force =     0.00000001   -0.00032024    0.00209282
     atom    9 type  2   force =     0.00000000    0.00000000    0.00000000
     atom   10 type  2   force =     0.00000000    0.00000000    0.00000000
     atom   11 type  1   force =    -0.00000001    0.00032024    0.00209282
     atom   12 type  1   force =     0.00000001    0.00032024    0.00209282
     atom   13 type  1   force =     0.00000000   -0.00000000   -0.00040767
     atom   14 type  1   force =    -0.00000000    0.00000000   -0.00040762
     atom   15 type  1   force =    -0.00000000    0.00000000   -0.00254123
     atom   16 type  1   force =     0.00000000   -0.00000000   -0.00253954
     atom   17 type  2   force =     0.00000000    0.00000000    0.00000000
     atom   18 type  2   force =     0.00000000    0.00000000    0.00000000
     atom   19 type  1   force =     0.00000031    0.00001839   -0.00000208
     atom   20 type  1   force =    -0.00000031    0.00001839   -0.00000208
     atom   21 type  2   force =     0.00000000    0.00000000    0.00000000
     atom   22 type  2   force =     0.00000000    0.00000000    0.00000000
     atom   23 type  1   force =     0.00000031   -0.00001894   -0.00000208
     atom   24 type  1   force =    -0.00000031   -0.00001894   -0.00000208
     atom   25 type  1   force =     0.00000000    0.00000000    0.00253911
     atom   26 type  1   force =     0.00000000   -0.00000000    0.00253742
     atom   27 type  1   force =     0.00000000    0.00000000    0.00040531
     atom   28 type  1   force =    -0.00000000    0.00000000    0.00040526
     atom   29 type  2   force =     0.00000000    0.00000000    0.00000000
     atom   30 type  2   force =     0.00000000    0.00000000    0.00000000
     atom   31 type  1   force =    -0.00000001   -0.00032035   -0.00209556
     atom   32 type  1   force =     0.00000001   -0.00032035   -0.00209556
     atom   33 type  2   force =     0.00000000    0.00000000    0.00000000
     atom   34 type  2   force =     0.00000000    0.00000000    0.00000000
     atom   35 type  1   force =    -0.00000001    0.00032035   -0.00209556
     atom   36 type  1   force =     0.00000001    0.00032035   -0.00209556
     atom   37 type  1   force =     0.00000000    0.00000000    0.01092601
     atom   38 type  1   force =     0.00000000   -0.00000000    0.01092605
     atom   39 type  1   force =     0.00000000    0.00000000    0.01179024
     atom   40 type  1   force =     0.00000000    0.00000000    0.01179105
     The Hubbard contrib.    to forces
     atom    1 type  1   force =     0.00000000    0.00000000    0.00000000
     atom    2 type  1   force =     0.00000000    0.00000000    0.00000000
     atom    3 type  1   force =     0.00000000    0.00000000    0.00000000
     atom    4 type  1   force =     0.00000000    0.00000000    0.00000000
     atom    5 type  2   force =     0.00000000    0.00000000    0.00000000
     atom    6 type  2   force =     0.00000000    0.00000000    0.00000000
     atom    7 type  1   force =     0.00000000    0.00000000    0.00000000
     atom    8 type  1   force =     0.00000000    0.00000000    0.00000000
     atom    9 type  2   force =     0.00000000    0.00000000    0.00000000
     atom   10 type  2   force =     0.00000000    0.00000000    0.00000000
     atom   11 type  1   force =     0.00000000    0.00000000    0.00000000
     atom   12 type  1   force =     0.00000000    0.00000000    0.00000000
     atom   13 type  1   force =     0.00000000    0.00000000    0.00000000
     atom   14 type  1   force =     0.00000000    0.00000000    0.00000000
     atom   15 type  1   force =     0.00000000    0.00000000    0.00000000
     atom   16 type  1   force =     0.00000000    0.00000000    0.00000000
     atom   17 type  2   force =     0.00000000    0.00000000    0.00000000
     atom   18 type  2   force =     0.00000000    0.00000000    0.00000000
     atom   19 type  1   force =     0.00000000    0.00000000    0.00000000
     atom   20 type  1   force =     0.00000000    0.00000000    0.00000000
     atom   21 type  2   force =     0.00000000    0.00000000    0.00000000
     atom   22 type  2   force =     0.00000000    0.00000000    0.00000000
     atom   23 type  1   force =     0.00000000    0.00000000    0.00000000
     atom   24 type  1   force =     0.00000000    0.00000000    0.00000000
     atom   25 type  1   force =     0.00000000    0.00000000    0.00000000
     atom   26 type  1   force =     0.00000000    0.00000000    0.00000000
     atom   27 type  1   force =     0.00000000    0.00000000    0.00000000
     atom   28 type  1   force =     0.00000000    0.00000000    0.00000000
     atom   29 type  2   force =     0.00000000    0.00000000    0.00000000
     atom   30 type  2   force =     0.00000000    0.00000000    0.00000000
     atom   31 type  1   force =     0.00000000    0.00000000    0.00000000
     atom   32 type  1   force =     0.00000000    0.00000000    0.00000000
     atom   33 type  2   force =     0.00000000    0.00000000    0.00000000
     atom   34 type  2   force =     0.00000000    0.00000000    0.00000000
     atom   35 type  1   force =     0.00000000    0.00000000    0.00000000
     atom   36 type  1   force =     0.00000000    0.00000000    0.00000000
     atom   37 type  1   force =     0.00000000    0.00000000    0.00000000
     atom   38 type  1   force =     0.00000000    0.00000000    0.00000000
     atom   39 type  1   force =     0.00000000    0.00000000    0.00000000
     atom   40 type  1   force =     0.00000000    0.00000000    0.00000000
     The SCF correction term to forces
     atom    1 type  1   force =    -0.00000000   -0.00000000    0.00000052
     atom    2 type  1   force =    -0.00000000   -0.00000000    0.00000050
     atom    3 type  1   force =    -0.00000000    0.00000000    0.00000029
     atom    4 type  1   force =    -0.00000000    0.00000000    0.00000017
     atom    5 type  2   force =    -0.00000042    0.00000000    0.00000056
     atom    6 type  2   force =     0.00000042    0.00000000    0.00000056
     atom    7 type  1   force =    -0.00000009   -0.00000106    0.00000079
     atom    8 type  1   force =     0.00000009   -0.00000106    0.00000079
     atom    9 type  2   force =    -0.00000000   -0.00000000    0.00000282
     atom   10 type  2   force =    -0.00000000   -0.00000000    0.00000257
     atom   11 type  1   force =    -0.00000009    0.00000106    0.00000079
     atom   12 type  1   force =     0.00000009    0.00000106    0.00000079
     atom   13 type  1   force =     0.00000000    0.00000000    0.00000069
     atom   14 type  1   force =     0.00000000    0.00000000   -0.00000036
     atom   15 type  1   force =    -0.00000000   -0.00000000    0.00000066
     atom   16 type  1   force =    -0.00000000   -0.00000000    0.00000040
     atom   17 type  2   force =    -0.00000000    0.00000000    0.00000000
     atom   18 type  2   force =    -0.00000000    0.00000000    0.00000000
     atom   19 type  1   force =    -0.00000104   -0.00000037    0.00000000
     atom   20 type  1   force =     0.00000104   -0.00000037    0.00000000
     atom   21 type  2   force =    -0.00000090   -0.00000000    0.00000001
     atom   22 type  2   force =     0.00000090   -0.00000000    0.00000001
     atom   23 type  1   force =    -0.00000104    0.00000037    0.00000000
     atom   24 type  1   force =     0.00000104    0.00000037    0.00000000
     atom   25 type  1   force =    -0.00000000   -0.00000000   -0.00000064
     atom   26 type  1   force =    -0.00000000   -0.00000000   -0.00000037
     atom   27 type  1   force =    -0.00000000    0.00000000   -0.00000067
     atom   28 type  1   force =     0.00000000    0.00000000    0.00000037
     atom   29 type  2   force =    -0.00000042    0.00000000   -0.00000053
     atom   30 type  2   force =     0.00000042    0.00000000   -0.00000053
     atom   31 type  1   force =    -0.00000009   -0.00000103   -0.00000077
     atom   32 type  1   force =     0.00000009   -0.00000103   -0.00000077
     atom   33 type  2   force =     0.00000000   -0.00000000   -0.00000280
     atom   34 type  2   force =    -0.00000000   -0.00000000   -0.00000255
     atom   35 type  1   force =    -0.00000009    0.00000103   -0.00000077
     atom   36 type  1   force =     0.00000009    0.00000103   -0.00000077
     atom   37 type  1   force =     0.00000000    0.00000000   -0.00000029
     atom   38 type  1   force =    -0.00000000    0.00000000   -0.00000017
     atom   39 type  1   force =    -0.00000000    0.00000000   -0.00000055
     atom   40 type  1   force =    -0.00000000   -0.00000000   -0.00000053

     Total force =     0.000129     Total SCF correction =     0.000007
     Energy error            =      1.8E-07 Ry
     Gradient error          =      4.0E-05 Ry/Bohr

     bfgs converged in  21 scf cycles and  20 bfgs steps
     (criteria: energy <  1.0E-04 Ry, force <  1.0E-04 Ry/Bohr)

     End of BFGS Geometry Optimization

     Final energy             =   -3427.6176926505 Ry

     File /storage/home/mgm6007/ixd4/Maria/Strain2_Files/RuO2-110-0-/RuO2-110-0-.bfgs deleted, as requested
Begin final coordinates

ATOMIC_POSITIONS (crystal)
O             0.0000000000        0.5000000000        0.2801680930
O             0.5000000000        0.5000000000        0.2801709281
O             0.0000000000        0.0000000000        0.3120617900
O             0.5000000000        0.0000000000        0.3120616892
Ru            0.2500001864       -0.0000000000        0.3581260726
Ru            0.7499998136        0.0000000000        0.3581260726
O             0.2500011823        0.3121808510        0.3631813026
O             0.7499988177        0.3121808510        0.3631813026
Ru            0.0000000000        0.5000000000        0.3553927416
Ru            0.5000000000        0.5000000000        0.3553953834
O             0.2500011823        0.6878191490        0.3631813026
O             0.7499988177        0.6878191490        0.3631813026
O             0.0000000000        0.0000000000        0.4142794030
O             0.5000000000        0.0000000000        0.4142794817
O             0.0000000000        0.5000000000        0.4466010195
O             0.5000000000        0.5000000000        0.4466110486
Ru            0.0000000000        0.0000000000        0.5000010000
Ru            0.5000000000        0.0000000000        0.5000010000
O             0.2499982733        0.1881094392        0.5000010000
O             0.7500017267        0.1881094392        0.5000010000
Ru            0.2499938766        0.5000000000        0.5000010000
Ru            0.7500061234        0.5000000000        0.5000010000
O             0.2499982733        0.8118915608        0.5000010000
O             0.7500017267        0.8118915608        0.5000010000
O             0.0000000000        0.5000000000        0.5533999805
O             0.5000000000        0.5000000000        0.5533899514
O             0.0000000000        0.0000000000        0.5857215970
O             0.5000000000        0.0000000000        0.5857215183
Ru            0.2500001864        0.0000000000        0.6418759274
Ru            0.7499998136       -0.0000000000        0.6418759274
O             0.2500011823        0.3121808510        0.6368206974
O             0.7499988177        0.3121808510        0.6368206974
Ru            0.0000000000        0.5000000000        0.6446092584
Ru            0.5000000000        0.5000000000        0.6446066166
O             0.2500011823        0.6878191490        0.6368206974
O             0.7499988177        0.6878191490        0.6368206974
O             0.0000000000        0.0000000000        0.6879392100
O             0.5000000000        0.0000000000        0.6879393108
O             0.0000000000        0.5000000000        0.7198329070
O             0.5000000000        0.5000000000        0.7198300719
End final coordinates

     Writing all to output data dir /storage/home/mgm6007/ixd4/Maria/Strain2_Files/RuO2-110-0-/RuO2-110-0-.save/

     General routines

     Parallel routines

     PAW routines

     Environ routines

   This run was terminated on:  15:48:14  18Jul2023

   JOB DONE.