     Program PWSCF v.7.2 starts on 26Jul2023 at 11:22:59
        Git branch: heads/qe-7.2
        Last git commit: b4c5e8deeb7d1863e7553a87b45f8d22c21926a5
        Last git commit date: Mon Mar 27 16:12:09 2023 +0000
        Last git commit subject: Merge branch 'merge_fix_hubbard' into 'develop'

     Reading input from RuO2-110-0-02345.in

     Current dimensions of program PWSCF are:
     Max number of different atomic species (ntypx) = 10
     Max number of k-points (npk) =  40000
     Max angular momentum in pseudopotentials (lmaxx) =  4

     Reading input from environ.in:
     * Environ restarting
     * setting up water environment
     * using electronic solvent mode
     * setting boundary derivatives method to SCCS default

     file O.pbe-n-kjpaw_psl.0.1.UPF: wavefunction(s)  2P renormalized
     Message from routine setup:
     using ibrav=0 with symmetry is DISCOURAGED, use correct ibrav instead

     R & G space division:  proc/nbgrp/npool/nimage =      20
     Subspace diagonalization in iterative solution of the eigenvalue problem:
     one sub-group per band group will be used

     Using Slab Decomposition

     bravais-lattice index     =            0
     lattice parameter (alat)  =      12.3824  a.u.
     unit-cell volume          =    5825.9133 (a.u.)^3
     number of atoms/cell      =           50
     number of atomic types    =            3
     number of electrons       =       370.00
     number of Kohn-Sham states=          222
     kinetic-energy cutoff     =      50.0000  Ry
     charge density cutoff     =     500.0000  Ry
     scf convergence threshold =      1.0E-09
     mixing beta               =       0.7000
     number of iterations used =            8  local-TF  mixing
     energy convergence thresh.=      1.0E-04
     force convergence thresh. =      1.0E-04
     Exchange-correlation= PBE
                           (   1   4   3   4   0   0   0)
     nstep                     =          200

                                  Environ Setup Summary

          O. Andreussi, I. Dabo and N. Marzari, J. Chem. Phys. 136, 064102 (2012)

     in publications or presentations arising from this work.

     Parameters

     compensation onset threshold      =               0.1000E+00
     static permittivity               =                    78.30
     surface tension in input (dyn/cm) =                    47.90
     surface tension in internal units =               0.6153E-04
     external pressure in input (GPa)  =                    -0.36
     external pressure in inter. units =              -0.2447E-04

     Solvent Boundary

     solvent mode                      =               electronic
     derivatives method                =                    chain
     numerical core for derivatives    =                      fft
     switching function adopted        =                     SCCS
     density limit for vacuum region   =               0.5000E-02
     density limit for bulk solvent    =               0.1000E-03

     Electrostatic Setup

     electrostatic problem to solve    =              generalized
     numerical solver adopted          =                       cg
     type of auxiliary density adopted =                     none
     numerical core for poisson        =                      fft
     type of pbc corrections           =                parabolic
     numerical core for corrections    =                      1da

     celldm(1)=  12.382447  celldm(2)=   0.000000  celldm(3)=   0.000000
     celldm(4)=   0.000000  celldm(5)=   0.000000  celldm(6)=   0.000000

     crystal axes: (cart. coord. in units of alat)
               a(1) = (   1.000000   0.000000   0.000000 )
               a(2) = (   0.000000   0.908473   0.000000 )
               a(3) = (   0.000000   0.000000   3.377790 )

     reciprocal axes: (cart. coord. in units 2 pi/alat)
               b(1) = (  1.000000  0.000000  0.000000 )
               b(2) = (  0.000000  1.100748  0.000000 )
               b(3) = (  0.000000  0.000000  0.296052 )

     PseudoPot. # 1 for O  read from file:
     /gpfs/group/ixd4/default/Simon/pseudopotentials/materialscloud/SSSP_1.3.0_PBE_efficiency/O.pbe-n-kjpaw_psl.0.1.UPF
     MD5 check sum: 0234752ac141de4415c5fc33072bef88
     Pseudo is Projector augmented-wave + core cor, Zval =  6.0
     Generated using "atomic" code by A. Dal Corso  v.5.0.99 svn rev. 10869
     Shape of augmentation charge: BESSEL
     Using radial grid of 1095 points,  4 beta functions with:
                l(1) =   0
                l(2) =   0
                l(3) =   1
                l(4) =   1
     Q(r) pseudized with 0 coefficients

     PseudoPot. # 2 for Ru read from file:
     /gpfs/group/ixd4/default/Simon/pseudopotentials/materialscloud/SSSP_1.3.0_PBE_efficiency/Ru_ONCV_PBE-1.0.oncvpsp.upf
     MD5 check sum: be037bb81c227cfb9b1461a9f099f4bd
     Pseudo is Norm-conserving, Zval = 16.0
     Generated using ONCVPSP code by D. R. Hamann
     Using radial grid of 1458 points,  6 beta functions with:
                l(1) =   0
                l(2) =   0
                l(3) =   1
                l(4) =   1
                l(5) =   2
                l(6) =   2

     PseudoPot. # 3 for H  read from file:
     /gpfs/group/ixd4/default/Simon/pseudopotentials/materialscloud/SSSP_1.3.0_PBE_efficiency/H.pbe-rrkjus_psl.1.0.0.UPF
     MD5 check sum: f52b6d4d1c606e5624b1dc7b2218f220
     Pseudo is Ultrasoft, Zval =  1.0
     Generated using "atomic" code by A. Dal Corso  v.5.1
     Using radial grid of  929 points,  2 beta functions with:
                l(1) =   0
                l(2) =   0
     Q(r) pseudized with 0 coefficients

     atomic species   valence    mass     pseudopotential
        O              6.00    15.99940     O ( 1.00)
        Ru            16.00   101.07000     Ru( 1.00)
        H              1.00     1.00794     H ( 1.00)

      4 Sym. Ops. (no inversion) found

   Cartesian axes

     site n.     atom                  positions (alat units)
         1           O   tau(   1) = (   0.0235556   0.4542364   0.8988869  )
         2           O   tau(   2) = (   0.4743534   0.4542364   0.9101075  )
         3           O   tau(   3) = (  -0.0021720   0.0000000   0.9717000  )
         4           O   tau(   4) = (   0.4965405   0.0000000   0.9704727  )
         5           Ru  tau(   5) = (   0.2472191   0.0000000   1.2193076  )
         6           Ru  tau(   6) = (   0.7470529   0.0000000   1.2143410  )
         7           O   tau(   7) = (   0.2444624   0.2730265   1.2052832  )
         8           O   tau(   8) = (   0.7508729   0.2763256   1.1952464  )
         9           Ru  tau(   9) = (  -0.0006769   0.4542364   1.2069408  )
        10           Ru  tau(  10) = (   0.4987729   0.4542364   1.1832444  )
        11           O   tau(  11) = (   0.2444624   0.6354464   1.2052832  )
        12           O   tau(  12) = (   0.7508729   0.6321472   1.1952464  )
        13           O   tau(  13) = (  -0.0047420   0.0000000   1.3942041  )
        14           O   tau(  14) = (   0.4987634   0.0000000   1.3940340  )
        15           O   tau(  15) = (  -0.0027227   0.4542364   1.5048980  )
        16           O   tau(  16) = (   0.4963543   0.4542364   1.4863372  )
        17           Ru  tau(  17) = (  -0.0050997   0.0000000   1.6888985  )
        18           Ru  tau(  18) = (   0.4989836   0.0000000   1.6888985  )
        19           O   tau(  19) = (   0.2486404   0.1750674   1.6888985  )
        20           O   tau(  20) = (   0.7451737   0.1790662   1.6888985  )
        21           Ru  tau(  21) = (   0.2537672   0.4542364   1.6888985  )
        22           Ru  tau(  22) = (   0.7414777   0.4542364   1.6888985  )
        23           O   tau(  23) = (   0.2486404   0.7334064   1.6888985  )
        24           O   tau(  24) = (   0.7451737   0.7294075   1.6888985  )
        25           O   tau(  25) = (  -0.0027227   0.4542364   1.8728957  )
        26           O   tau(  26) = (   0.4963543   0.4542364   1.8914565  )
        27           O   tau(  27) = (  -0.0047420   0.0000000   1.9835896  )
        28           O   tau(  28) = (   0.4987634   0.0000000   1.9837597  )
        29           Ru  tau(  29) = (   0.2472191   0.0000000   2.1584861  )
        30           Ru  tau(  30) = (   0.7470529   0.0000000   2.1634527  )
        31           O   tau(  31) = (   0.2444624   0.2730265   2.1725105  )
        32           O   tau(  32) = (   0.7508729   0.2763256   2.1825473  )
        33           Ru  tau(  33) = (  -0.0006769   0.4542364   2.1708529  )
        34           Ru  tau(  34) = (   0.4987729   0.4542364   2.1945493  )
        35           O   tau(  35) = (   0.2444624   0.6354464   2.1725105  )
        36           O   tau(  36) = (   0.7508729   0.6321472   2.1825473  )
        37           O   tau(  37) = (  -0.0021720   0.0000000   2.4060971  )
        38           O   tau(  38) = (   0.4965405   0.0000000   2.4073244  )
        39           O   tau(  39) = (   0.0235556   0.4542364   2.4789068  )
        40           O   tau(  40) = (   0.4743534   0.4542364   2.4676862  )
        41           H   tau(  41) = (   0.1775522   0.4542364   0.8796067  )
        42           H   tau(  42) = (   0.1775522   0.4542364   2.4981837  )
        43           H   tau(  43) = (  -0.0010069   0.1118788   0.8863664  )
        44           H   tau(  44) = (  -0.0010069   0.1118788   2.4914239  )
        45           H   tau(  45) = (   0.4953745   0.1107039   0.8838398  )
        46           H   tau(  46) = (   0.4953745   0.1107039   2.4939505  )
        47           H   tau(  47) = (  -0.0010069   0.7965941   0.8863664  )
        48           H   tau(  48) = (  -0.0010069   0.7965941   2.4914239  )
        49           H   tau(  49) = (   0.4953745   0.7977689   0.8838398  )
        50           H   tau(  50) = (   0.4953745   0.7977689   2.4939505  )

     number of k points=     1  Marzari-Vanderbilt smearing, width (Ry)=  0.0300
                       cart. coord. in units 2pi/alat
        k(    1) = (   0.2500000   0.2751871   0.0000000), wk =   2.0000000

     Check: negative core charge=   -0.000001

     Initial potential from superposition of free atoms

     starting charge     369.9932, renormalised to     370.0000

     add environment contribution to local potential
     Polarization accuracy = 1.9E-12, # of iterations =  24

     negative rho (up, down):  2.831E-05 0.000E+00
     Starting wfcs are  242 randomized atomic wfcs
     Checking if some PAW data can be deallocated...

     Self-consistent Calculation

     iteration #  1     ecut=    50.00 Ry     beta= 0.70
     Davidson diagonalization with overlap
     ethr =  1.00E-02,  avg # of iterations =  4.0

     total energy              =   -3437.74678992 Ry
     estimated scf accuracy    <       9.48394158 Ry
     electrostatic embedding   =      -0.00171410 Ry
     cavitation energy         =       0.01874571 Ry
     PV energy                 =      -0.08727881 Ry
     correction to one-el term =     226.78823131 Ry

[...]

     negative rho (up, down):  6.776E-06 0.000E+00

[...]

     the potential shift due to the Gaussian-smeared nuclei is    -1.3573 ev

[...]
     atom   37 type  1   force =     0.26470234    0.00000000  -90.23964041
     atom   38 type  1   force =    -0.30592142    0.00000000  -90.20431756
     atom   39 type  1   force =     2.01876111    0.00000000  -93.56763066
     atom   40 type  1   force =    -0.62742755   -0.00000000  -96.96564863
     atom   41 type  3   force =    -2.62217510   -0.00000000   15.74281309
     atom   42 type  3   force =    -2.62217510    0.00000000  -15.74281309
     atom   43 type  3   force =     0.07378661   -2.15380926   16.73829989
     atom   44 type  3   force =     0.07378661   -2.15380926  -16.73829989
     atom   45 type  3   force =    -0.03632856   -2.14491169   16.81031988
     atom   46 type  3   force =    -0.03632856   -2.14491169  -16.81031988
     atom   47 type  3   force =     0.07378661    2.15380926   16.73829989
     atom   48 type  3   force =     0.07378661    2.15380926  -16.73829989
     atom   49 type  3   force =    -0.03632856    2.14491169   16.81031988
     atom   50 type  3   force =    -0.03632856    2.14491169  -16.81031988
     The core correction contribution to forces
     atom    1 type  1   force =    -0.01587113    0.00000000   -0.00576955
     atom    2 type  1   force =     0.00007518   -0.00000000   -0.00932453
     atom    3 type  1   force =    -0.00010299   -0.00000000    0.01287362
     atom    4 type  1   force =     0.00042373   -0.00000000    0.01313290
     atom    5 type  2   force =     0.00000000    0.00000000    0.00000000
     atom    6 type  2   force =     0.00000000    0.00000000    0.00000000
     atom    7 type  1   force =    -0.00019186    0.00045699    0.00072997
     atom    8 type  1   force =     0.00055604    0.00063314   -0.00001666
     atom    9 type  2   force =     0.00000000    0.00000000    0.00000000
     atom   10 type  2   force =     0.00000000    0.00000000    0.00000000
     atom   11 type  1   force =    -0.00019186   -0.00045699    0.00072997
     atom   12 type  1   force =     0.00055604   -0.00063314   -0.00001666
     atom   13 type  1   force =    -0.00010740   -0.00000000    0.00227401
     atom   14 type  1   force =     0.00019721   -0.00000000    0.00226279
     atom   15 type  1   force =     0.00016856    0.00000000    0.00068703
     atom   16 type  1   force =    -0.00006245   -0.00000000   -0.00223959
     atom   17 type  2   force =     0.00000000    0.00000000    0.00000000
     atom   18 type  2   force =     0.00000000    0.00000000    0.00000000
     atom   19 type  1   force =    -0.00015128   -0.00033500   -0.00000202
     atom   20 type  1   force =     0.00014870   -0.00028064   -0.00000203
     atom   21 type  2   force =     0.00000000    0.00000000    0.00000000
     atom   22 type  2   force =     0.00000000    0.00000000    0.00000000
     atom   23 type  1   force =    -0.00015128    0.00033449   -0.00000202
     atom   24 type  1   force =     0.00014871    0.00028013   -0.00000203
     atom   25 type  1   force =     0.00016854   -0.00000000   -0.00068943
     atom   26 type  1   force =    -0.00006243   -0.00000000    0.00223741
     atom   27 type  1   force =    -0.00010739    0.00000000   -0.00227603
     atom   28 type  1   force =     0.00019722    0.00000000   -0.00226481
     atom   29 type  2   force =     0.00000000    0.00000000    0.00000000
     atom   30 type  2   force =     0.00000000    0.00000000    0.00000000
     atom   31 type  1   force =    -0.00019179    0.00045726   -0.00073192
     atom   32 type  1   force =     0.00055596    0.00063345    0.00001467
     atom   33 type  2   force =     0.00000000    0.00000000    0.00000000
     atom   34 type  2   force =     0.00000000    0.00000000    0.00000000
     atom   35 type  1   force =    -0.00019179   -0.00045726   -0.00073192
     atom   36 type  1   force =     0.00055596   -0.00063345    0.00001467
     atom   37 type  1   force =    -0.00010306   -0.00000000   -0.01287770
     atom   38 type  1   force =     0.00042384    0.00000000   -0.01313701
     atom   39 type  1   force =    -0.01587176    0.00000000    0.00576737
     atom   40 type  1   force =     0.00007518    0.00000000    0.00932206
     atom   41 type  3   force =     0.00000000    0.00000000    0.00000000
     atom   42 type  3   force =     0.00000000    0.00000000    0.00000000
     atom   43 type  3   force =     0.00000000    0.00000000    0.00000000
     atom   44 type  3   force =     0.00000000    0.00000000    0.00000000
     atom   45 type  3   force =     0.00000000    0.00000000    0.00000000
     atom   46 type  3   force =     0.00000000    0.00000000    0.00000000
     atom   47 type  3   force =     0.00000000    0.00000000    0.00000000
     atom   48 type  3   force =     0.00000000    0.00000000    0.00000000
     atom   49 type  3   force =     0.00000000    0.00000000    0.00000000
     atom   50 type  3   force =     0.00000000    0.00000000    0.00000000
     The Hubbard contrib.    to forces
     atom    1 type  1   force =     0.00000000    0.00000000    0.00000000
     atom    2 type  1   force =     0.00000000    0.00000000    0.00000000
     atom    3 type  1   force =     0.00000000    0.00000000    0.00000000
     atom    4 type  1   force =     0.00000000    0.00000000    0.00000000
     atom    5 type  2   force =     0.00000000    0.00000000    0.00000000
     atom    6 type  2   force =     0.00000000    0.00000000    0.00000000
     atom    7 type  1   force =     0.00000000    0.00000000    0.00000000
     atom    8 type  1   force =     0.00000000    0.00000000    0.00000000
     atom    9 type  2   force =     0.00000000    0.00000000    0.00000000
     atom   10 type  2   force =     0.00000000    0.00000000    0.00000000
     atom   11 type  1   force =     0.00000000    0.00000000    0.00000000
     atom   12 type  1   force =     0.00000000    0.00000000    0.00000000
     atom   13 type  1   force =     0.00000000    0.00000000    0.00000000
     atom   14 type  1   force =     0.00000000    0.00000000    0.00000000
     atom   15 type  1   force =     0.00000000    0.00000000    0.00000000
     atom   16 type  1   force =     0.00000000    0.00000000    0.00000000
     atom   17 type  2   force =     0.00000000    0.00000000    0.00000000
     atom   18 type  2   force =     0.00000000    0.00000000    0.00000000
     atom   19 type  1   force =     0.00000000    0.00000000    0.00000000
     atom   20 type  1   force =     0.00000000    0.00000000    0.00000000
     atom   21 type  2   force =     0.00000000    0.00000000    0.00000000
     atom   22 type  2   force =     0.00000000    0.00000000    0.00000000
     atom   23 type  1   force =     0.00000000    0.00000000    0.00000000
     atom   24 type  1   force =     0.00000000    0.00000000    0.00000000
     atom   25 type  1   force =     0.00000000    0.00000000    0.00000000
     atom   26 type  1   force =     0.00000000    0.00000000    0.00000000
     atom   27 type  1   force =     0.00000000    0.00000000    0.00000000
     atom   28 type  1   force =     0.00000000    0.00000000    0.00000000
     atom   29 type  2   force =     0.00000000    0.00000000    0.00000000
     atom   30 type  2   force =     0.00000000    0.00000000    0.00000000
     atom   31 type  1   force =     0.00000000    0.00000000    0.00000000
     atom   32 type  1   force =     0.00000000    0.00000000    0.00000000
     atom   33 type  2   force =     0.00000000    0.00000000    0.00000000
     atom   34 type  2   force =     0.00000000    0.00000000    0.00000000
     atom   35 type  1   force =     0.00000000    0.00000000    0.00000000
     atom   36 type  1   force =     0.00000000    0.00000000    0.00000000
     atom   37 type  1   force =     0.00000000    0.00000000    0.00000000
     atom   38 type  1   force =     0.00000000    0.00000000    0.00000000
     atom   39 type  1   force =     0.00000000    0.00000000    0.00000000
     atom   40 type  1   force =     0.00000000    0.00000000    0.00000000
     atom   41 type  3   force =     0.00000000    0.00000000    0.00000000
     atom   42 type  3   force =     0.00000000    0.00000000    0.00000000
     atom   43 type  3   force =     0.00000000    0.00000000    0.00000000
     atom   44 type  3   force =     0.00000000    0.00000000    0.00000000
     atom   45 type  3   force =     0.00000000    0.00000000    0.00000000
     atom   46 type  3   force =     0.00000000    0.00000000    0.00000000
     atom   47 type  3   force =     0.00000000    0.00000000    0.00000000
     atom   48 type  3   force =     0.00000000    0.00000000    0.00000000
     atom   49 type  3   force =     0.00000000    0.00000000    0.00000000
     atom   50 type  3   force =     0.00000000    0.00000000    0.00000000
     The SCF correction term to forces
     atom    1 type  1   force =     0.00000052    0.00000000   -0.00000171
     atom    2 type  1   force =    -0.00000058    0.00000000   -0.00000075
     atom    3 type  1   force =     0.00000260    0.00000000   -0.00000133
     atom    4 type  1   force =    -0.00000262    0.00000000   -0.00000085
     atom    5 type  2   force =     0.00000061    0.00000000   -0.00000408
     atom    6 type  2   force =    -0.00000032    0.00000000   -0.00000139
     atom    7 type  1   force =     0.00000090   -0.00000055   -0.00000124
     atom    8 type  1   force =    -0.00000074    0.00000091   -0.00000062
     atom    9 type  2   force =     0.00000188   -0.00000000   -0.00000208
     atom   10 type  2   force =    -0.00000216    0.00000000   -0.00000194
     atom   11 type  1   force =     0.00000090    0.00000055   -0.00000124
     atom   12 type  1   force =    -0.00000074   -0.00000091   -0.00000062
     atom   13 type  1   force =     0.00000120    0.00000000   -0.00000076
     atom   14 type  1   force =    -0.00000120    0.00000000   -0.00000058
     atom   15 type  1   force =     0.00000000   -0.00000000   -0.00000010
     atom   16 type  1   force =     0.00000008    0.00000000   -0.00000063
     atom   17 type  2   force =     0.00000100    0.00000000    0.00000003
     atom   18 type  2   force =    -0.00000045    0.00000000    0.00000003
     atom   19 type  1   force =     0.00000025    0.00000004    0.00000001
     atom   20 type  1   force =    -0.00000069    0.00000068    0.00000001
     atom   21 type  2   force =     0.00000097   -0.00000000    0.00000003
     atom   22 type  2   force =    -0.00000144   -0.00000000    0.00000003
     atom   23 type  1   force =     0.00000025   -0.00000004    0.00000001
     atom   24 type  1   force =    -0.00000069   -0.00000068    0.00000001
     atom   25 type  1   force =     0.00000000    0.00000000    0.00000013
     atom   26 type  1   force =     0.00000008   -0.00000000    0.00000065
     atom   27 type  1   force =     0.00000120   -0.00000000    0.00000077
     atom   28 type  1   force =    -0.00000121    0.00000000    0.00000059
     atom   29 type  2   force =     0.00000061    0.00000000    0.00000409
     atom   30 type  2   force =    -0.00000032    0.00000000    0.00000140
     atom   31 type  1   force =     0.00000090   -0.00000055    0.00000124
     atom   32 type  1   force =    -0.00000074    0.00000091    0.00000063
     atom   33 type  2   force =     0.00000188   -0.00000000    0.00000209
     atom   34 type  2   force =    -0.00000216   -0.00000000    0.00000194
     atom   35 type  1   force =     0.00000090    0.00000055    0.00000124
     atom   36 type  1   force =    -0.00000074   -0.00000091    0.00000063
     atom   37 type  1   force =     0.00000260   -0.00000000    0.00000132
     atom   38 type  1   force =    -0.00000262   -0.00000000    0.00000084
     atom   39 type  1   force =     0.00000052   -0.00000000    0.00000170
     atom   40 type  1   force =    -0.00000058   -0.00000000    0.00000073
     atom   41 type  3   force =     0.00000009   -0.00000000   -0.00000019
     atom   42 type  3   force =     0.00000009    0.00000000    0.00000019
     atom   43 type  3   force =     0.00000025   -0.00000004   -0.00000018
     atom   44 type  3   force =     0.00000025   -0.00000004    0.00000018
     atom   45 type  3   force =    -0.00000024    0.00000004   -0.00000015
     atom   46 type  3   force =    -0.00000024    0.00000004    0.00000015
     atom   47 type  3   force =     0.00000025    0.00000004   -0.00000018
     atom   48 type  3   force =     0.00000025    0.00000004    0.00000018
     atom   49 type  3   force =    -0.00000024   -0.00000004   -0.00000015
     atom   50 type  3   force =    -0.00000024   -0.00000004    0.00000015

     Total force =     0.000292     Total SCF correction =     0.000012
     Energy error            =      2.7E-07 Ry
     Gradient error          =      7.6E-05 Ry/Bohr

     bfgs converged in  31 scf cycles and  30 bfgs steps
     (criteria: energy <  1.0E-04 Ry, force <  1.0E-04 Ry/Bohr)

     End of BFGS Geometry Optimization

     Final energy             =   -3439.9398545466 Ry

     File /storage/home/mgm6007/ixd4/Maria/StrainJin_Files/RuO2-110-0-02345/RuO2-110-0-02345.bfgs deleted, as requested
Begin final coordinates

ATOMIC_POSITIONS (crystal)
O             0.0226627831        0.5000000000        0.2633436404
O             0.4763992547        0.5000000000        0.2675402177
O            -0.0016483742        0.0000000000        0.2902386815
O             0.4964657079        0.0000000000        0.2903148395
Ru            0.2475976484        0.0000000000        0.3608863155
Ru            0.7480662862        0.0000000000        0.3598110026
O             0.2467178446        0.3107838055        0.3563443034
O             0.7498458352        0.3120093963        0.3532032843
Ru           -0.0004212571        0.5000000000        0.3560443421
Ru            0.4988649018        0.5000000000        0.3499926432
O             0.2467178446        0.6892161945        0.3563443034
O             0.7498458352        0.6879906037        0.3532032843
O            -0.0036204359        0.0000000000        0.4123977031
O             0.4986201641        0.0000000000        0.4124267081
O            -0.0037580544        0.5000000000        0.4454188568
O             0.4972513852        0.5000000000        0.4426840693
Ru           -0.0030578628        0.0000000000        0.5000010000
Ru            0.4974825850        0.0000000000        0.5000010000
O             0.2472560285        0.1868989037        0.5000010000
O             0.7469876287        0.1870874698        0.5000010000
Ru            0.2502983759        0.5000000000        0.5000010000
Ru            0.7447033014        0.5000000000        0.5000010000
O             0.2472560285        0.8131020963        0.5000010000
O             0.7469876287        0.8129135302        0.5000010000
O            -0.0037580544        0.5000000000        0.5545821432
O             0.4972513852        0.5000000000        0.5573169307
O            -0.0036204359        0.0000000000        0.5876032969
O             0.4986201641        0.0000000000        0.5875742919
Ru            0.2475976484        0.0000000000        0.6391146845
Ru            0.7480662862        0.0000000000        0.6401899974
O             0.2467178446        0.3107838055        0.6436566966
O             0.7498458352        0.3120093963        0.6467977157
Ru           -0.0004212571        0.5000000000        0.6439566579
Ru            0.4988649018        0.5000000000        0.6500083568
O             0.2467178446        0.6892161945        0.6436566966
O             0.7498458352        0.6879906037        0.6467977157
O            -0.0016483742        0.0000000000        0.7097633185
O             0.4964657079        0.0000000000        0.7096871605
O             0.0226627831        0.5000000000        0.7366573596
O             0.4763992547        0.5000000000        0.7324607823
H             0.1720369674        0.5000000000        0.2570360497
H             0.1720369674        0.5000000000        0.7429639503
H            -0.0004421937        0.1389242374        0.2652670401
H            -0.0004421937        0.1389242374        0.7347329599
H             0.4939590969        0.1378100952        0.2651035228
H             0.4939590969        0.1378100952        0.7348964772
H            -0.0004421937        0.8610757626        0.2652670401
H            -0.0004421937        0.8610757626        0.7347329599
H             0.4939590969        0.8621899048        0.2651035228
H             0.4939590969        0.8621899048        0.7348964772
End final coordinates

     Writing all to output data dir /storage/home/mgm6007/ixd4/Maria/StrainJin_Files/RuO2-110-0-02345/RuO2-110-0-02345.save/

     General routines

     Parallel routines

     Environ routines

   This run was terminated on:  20: 4:16  28Jul2023

   JOB DONE.