     Program PWSCF v.7.2 starts on 24Jul2023 at 16:17:39
        Git branch: heads/qe-7.2
        Last git commit: b4c5e8deeb7d1863e7553a87b45f8d22c21926a5
        Last git commit date: Mon Mar 27 16:12:09 2023 +0000
        Last git commit subject: Merge branch 'merge_fix_hubbard' into 'develop'

     Reading input from RuO2-110-0-01.in

     Current dimensions of program PWSCF are:
     Max number of different atomic species (ntypx) = 10
     Max number of k-points (npk) =  40000
     Max angular momentum in pseudopotentials (lmaxx) =  4

     Reading input from environ.in:
     * Environ restarting
     * setting up water environment
     * using electronic solvent mode
     * setting boundary derivatives method to SCCS default

     file O.pbe-n-kjpaw_psl.0.1.UPF: wavefunction(s)  2P renormalized
     Found identity + ( -0.5000  0.0000 -0.0000) symmetry
     This is a supercell, fractional translations are disabled
     Message from routine setup:
     using ibrav=0 with symmetry is DISCOURAGED, use correct ibrav instead

     R & G space division:  proc/nbgrp/npool/nimage =      20
     Subspace diagonalization in iterative solution of the eigenvalue problem:
     one sub-group per band group will be used

     Using Slab Decomposition

     bravais-lattice index     =            0
     lattice parameter (alat)  =      12.3824  a.u.
     unit-cell volume          =    5825.9133 (a.u.)^3
     number of atoms/cell      =           44
     number of atomic types    =            3
     number of electrons       =       364.00
     number of Kohn-Sham states=          218
     kinetic-energy cutoff     =      50.0000  Ry
     charge density cutoff     =     500.0000  Ry
     scf convergence threshold =      1.0E-09
     mixing beta               =       0.7000
     number of iterations used =            8  local-TF  mixing
     energy convergence thresh.=      1.0E-04
     force convergence thresh. =      1.0E-04
     Exchange-correlation= PBE
                           (   1   4   3   4   0   0   0)
     nstep                     =          200

                                  Environ Setup Summary

          O. Andreussi, I. Dabo and N. Marzari, J. Chem. Phys. 136, 064102 (2012)

     in publications or presentations arising from this work.

     Parameters

     compensation onset threshold      =               0.1000E+00
     static permittivity               =                    78.30
     surface tension in input (dyn/cm) =                    47.90
     surface tension in internal units =               0.6153E-04
     external pressure in input (GPa)  =                    -0.36
     external pressure in inter. units =              -0.2447E-04

     Solvent Boundary

     solvent mode                      =               electronic
     derivatives method                =                    chain
     numerical core for derivatives    =                      fft
     switching function adopted        =                     SCCS
     density limit for vacuum region   =               0.5000E-02
     density limit for bulk solvent    =               0.1000E-03

     Electrostatic Setup

     electrostatic problem to solve    =              generalized
     numerical solver adopted          =                       cg
     type of auxiliary density adopted =                     none
     numerical core for poisson        =                      fft
     type of pbc corrections           =                parabolic
     numerical core for corrections    =                      1da

     celldm(1)=  12.382447  celldm(2)=   0.000000  celldm(3)=   0.000000
     celldm(4)=   0.000000  celldm(5)=   0.000000  celldm(6)=   0.000000

     crystal axes: (cart. coord. in units of alat)
               a(1) = (   1.000000   0.000000   0.000000 )
               a(2) = (   0.000000   0.908473   0.000000 )
               a(3) = (   0.000000   0.000000   3.377790 )

     reciprocal axes: (cart. coord. in units 2 pi/alat)
               b(1) = (  1.000000  0.000000  0.000000 )
               b(2) = (  0.000000  1.100748  0.000000 )
               b(3) = (  0.000000  0.000000  0.296052 )

     PseudoPot. # 1 for O  read from file:
     /gpfs/group/ixd4/default/Simon/pseudopotentials/materialscloud/SSSP_1.3.0_PBE_efficiency/O.pbe-n-kjpaw_psl.0.1.UPF
     MD5 check sum: 0234752ac141de4415c5fc33072bef88
     Pseudo is Projector augmented-wave + core cor, Zval =  6.0
     Generated using "atomic" code by A. Dal Corso  v.5.0.99 svn rev. 10869
     Shape of augmentation charge: BESSEL
     Using radial grid of 1095 points,  4 beta functions with:
                l(1) =   0
                l(2) =   0
                l(3) =   1
                l(4) =   1
     Q(r) pseudized with 0 coefficients

     PseudoPot. # 2 for Ru read from file:
     /gpfs/group/ixd4/default/Simon/pseudopotentials/materialscloud/SSSP_1.3.0_PBE_efficiency/Ru_ONCV_PBE-1.0.oncvpsp.upf
     MD5 check sum: be037bb81c227cfb9b1461a9f099f4bd
     Pseudo is Norm-conserving, Zval = 16.0
     Generated using ONCVPSP code by D. R. Hamann
     Using radial grid of 1458 points,  6 beta functions with:
                l(1) =   0
                l(2) =   0
                l(3) =   1
                l(4) =   1
                l(5) =   2
                l(6) =   2

     PseudoPot. # 3 for H  read from file:
     /gpfs/group/ixd4/default/Simon/pseudopotentials/materialscloud/SSSP_1.3.0_PBE_efficiency/H.pbe-rrkjus_psl.1.0.0.UPF
     MD5 check sum: f52b6d4d1c606e5624b1dc7b2218f220
     Pseudo is Ultrasoft, Zval =  1.0
     Generated using "atomic" code by A. Dal Corso  v.5.1
     Using radial grid of  929 points,  2 beta functions with:
                l(1) =   0
                l(2) =   0
     Q(r) pseudized with 0 coefficients

     atomic species   valence    mass     pseudopotential
        O              6.00    15.99940     O ( 1.00)
        Ru            16.00   101.07000     Ru( 1.00)
        H              1.00     1.00794     H ( 1.00)

      4 Sym. Ops. (no inversion) found

   Cartesian axes

     site n.     atom                  positions (alat units)
         1           O   tau(   1) = (  -0.0094134   0.4542364   0.9161621  )
         2           O   tau(   2) = (   0.4905867   0.4542364   0.9161609  )
         3           O   tau(   3) = (  -0.0013620   0.0000000   1.0381566  )
         4           O   tau(   4) = (   0.4986380   0.0000000   1.0381567  )
         5           Ru  tau(   5) = (   0.2484598   0.0000000   1.1967556  )
         6           Ru  tau(   6) = (   0.7484599   0.0000000   1.1967557  )
         7           O   tau(   7) = (   0.2475050   0.2806511   1.2077001  )
         8           O   tau(   8) = (   0.7475051   0.2806510   1.2077001  )
         9           Ru  tau(   9) = (  -0.0033462   0.4542364   1.2075637  )
        10           Ru  tau(  10) = (   0.4966540   0.4542364   1.2075622  )
        11           O   tau(  11) = (   0.2475050   0.6278218   1.2077001  )
        12           O   tau(  12) = (   0.7475051   0.6278219   1.2077001  )
        13           O   tau(  13) = (  -0.0007368   0.0000000   1.3930255  )
        14           O   tau(  14) = (   0.4992628   0.0000000   1.3930255  )
        15           O   tau(  15) = (   0.0064095   0.4542364   1.5015439  )
        16           O   tau(  16) = (   0.5064096   0.4542364   1.5015410  )
        17           Ru  tau(  17) = (   0.0008011   0.0000000   1.6888985  )
        18           Ru  tau(  18) = (   0.5008004   0.0000000   1.6888985  )
        19           O   tau(  19) = (   0.2511985   0.1758927   1.6888985  )
        20           O   tau(  20) = (   0.7511981   0.1758919   1.6888985  )
        21           Ru  tau(  21) = (   0.2517502   0.4542364   1.6888985  )
        22           Ru  tau(  22) = (   0.7517481   0.4542364   1.6888985  )
        23           O   tau(  23) = (   0.2511985   0.7325810   1.6888985  )
        24           O   tau(  24) = (   0.7511981   0.7325819   1.6888985  )
        25           O   tau(  25) = (   0.0064095   0.4542364   1.8762498  )
        26           O   tau(  26) = (   0.5064096   0.4542364   1.8762527  )
        27           O   tau(  27) = (  -0.0007368   0.0000000   1.9847682  )
        28           O   tau(  28) = (   0.4992628   0.0000000   1.9847682  )
        29           Ru  tau(  29) = (   0.2484598   0.0000000   2.1810381  )
        30           Ru  tau(  30) = (   0.7484599   0.0000000   2.1810380  )
        31           O   tau(  31) = (   0.2475050   0.2806511   2.1700936  )
        32           O   tau(  32) = (   0.7475051   0.2806510   2.1700936  )
        33           Ru  tau(  33) = (  -0.0033462   0.4542364   2.1702300  )
        34           Ru  tau(  34) = (   0.4966540   0.4542364   2.1702315  )
        35           O   tau(  35) = (   0.2475050   0.6278218   2.1700936  )
        36           O   tau(  36) = (   0.7475051   0.6278219   2.1700936  )
        37           O   tau(  37) = (  -0.0013620   0.0000000   2.3396405  )
        38           O   tau(  38) = (   0.4986380   0.0000000   2.3396404  )
        39           O   tau(  39) = (  -0.0094134   0.4542364   2.4616316  )
        40           O   tau(  40) = (   0.4905867   0.4542364   2.4616328  )
        41           H   tau(  41) = (   0.1301407   0.4542364   0.8527870  )
        42           H   tau(  42) = (   0.1301407   0.4542364   2.5250033  )
        43           H   tau(  43) = (   0.6301408   0.4542364   0.8527860  )
        44           H   tau(  44) = (   0.6301408   0.4542364   2.5250043  )

     number of k points=     1  Marzari-Vanderbilt smearing, width (Ry)=  0.0300
                       cart. coord. in units 2pi/alat
        k(    1) = (   0.2500000   0.2751871   0.0000000), wk =   2.0000000

     Check: negative core charge=   -0.000001

     Initial potential from superposition of free atoms

     starting charge     363.9933, renormalised to     364.0000

     add environment contribution to local potential
     Polarization accuracy = 6.0E-12, # of iterations =  21

     negative rho (up, down):  2.932E-05 0.000E+00
     Starting wfcs are  236 randomized atomic wfcs
     Checking if some PAW data can be deallocated...

     Self-consistent Calculation

     iteration #  1     ecut=    50.00 Ry     beta= 0.70
     Davidson diagonalization with overlap
     ethr =  1.00E-02,  avg # of iterations =  2.0

     total energy              =   -3429.96456153 Ry
     estimated scf accuracy    <      10.21390767 Ry
     electrostatic embedding   =      -0.00181740 Ry
     cavitation energy         =       0.01962782 Ry
     PV energy                 =      -0.08306192 Ry
     correction to one-el term =     217.76135668 Ry

[...]

     negative rho (up, down):  1.196E-04 0.000E+00

[...]

     the potential shift due to the Gaussian-smeared nuclei is    -1.3353 ev

     End of self-consistent calculation

          k = 0.2500 0.2752 0.0000 ( 34780 PWs)   bands (ev):

   -78.6028 -78.5990 -78.5924 -78.5887 -78.1275 -78.1237 -78.1169 -78.1131
   -77.9411 -77.9371 -77.9218 -77.9185 -48.8338 -48.8289 -48.8234 -48.8184
   -48.6154 -48.6052 -48.5343 -48.5241 -48.4535 -48.4430 -48.4409 -48.4305
[...]
     atom    8 type  1   force =    -0.05799597    1.11158096   63.79515014
     atom    9 type  2   force =     0.07553266    0.00000000  170.28508158
     atom   10 type  2   force =     0.07551766    0.00000000  170.28506693
     atom   11 type  1   force =    -0.05799667   -1.11158219   63.79513724
     atom   12 type  1   force =    -0.05799597   -1.11158096   63.79515014
     atom   13 type  1   force =     0.02604069    0.00000000   38.92722898
     atom   14 type  1   force =     0.02604235    0.00000000   38.92722802
     atom   15 type  1   force =     0.10719256   -0.00000000   25.47692697
     atom   16 type  1   force =     0.10719502   -0.00000000   25.47692466
     atom   17 type  2   force =     0.06003797    0.00000000   -0.00590261
     atom   18 type  2   force =     0.06004315    0.00000000   -0.00590261
     atom   19 type  1   force =    -0.01183742   -0.21900657   -0.00247911
     atom   20 type  1   force =    -0.01183546   -0.21900685   -0.00247911
     atom   21 type  2   force =    -0.37021962   -0.00000000   -0.00605641
     atom   22 type  2   force =    -0.37021801   -0.00000000   -0.00605641
     atom   23 type  1   force =    -0.01183826    0.21866044   -0.00247911
     atom   24 type  1   force =    -0.01183629    0.21866071   -0.00247911
     atom   25 type  1   force =     0.10718432   -0.00000000  -25.47868589
     atom   26 type  1   force =     0.10718678    0.00000000  -25.47868359
     atom   27 type  1   force =     0.02604087    0.00000000  -38.92898654
     atom   28 type  1   force =     0.02604252   -0.00000000  -38.92898557
     atom   29 type  2   force =    -0.04485988    0.00000000 -177.71160162
     atom   30 type  2   force =    -0.04486195   -0.00000000 -177.71160470
     atom   31 type  1   force =    -0.05799463    1.11155747  -63.79760818
     atom   32 type  1   force =    -0.05799393    1.11155623  -63.79762108
     atom   33 type  2   force =     0.07551950    0.00000000 -170.29091307
     atom   34 type  2   force =     0.07550450    0.00000000 -170.29089841
     atom   35 type  1   force =    -0.05799463   -1.11155747  -63.79760818
     atom   36 type  1   force =    -0.05799393   -1.11155623  -63.79762108
     atom   37 type  1   force =     0.00735025    0.00000000  -93.52193713
     atom   38 type  1   force =     0.00734865   -0.00000000  -93.52193721
     atom   39 type  1   force =     1.13131263   -0.00000000  -96.34110829
     atom   40 type  1   force =     1.13129632    0.00000000  -96.34111931
     atom   41 type  3   force =    -2.70437314   -0.00000000   16.62767051
     atom   42 type  3   force =    -2.70437314    0.00000000  -16.62767051
     atom   43 type  3   force =    -2.70436304    0.00000000   16.62766703
     atom   44 type  3   force =    -2.70436304    0.00000000  -16.62766703
     The core correction contribution to forces
     atom    1 type  1   force =    -0.01791578   -0.00000000   -0.00320839
     atom    2 type  1   force =    -0.01791582   -0.00000000   -0.00320835
     atom    3 type  1   force =    -0.00003647   -0.00000000   -0.01074097
     atom    4 type  1   force =    -0.00003647   -0.00000000   -0.01074097
     atom    5 type  2   force =     0.00000000    0.00000000    0.00000000
     atom    6 type  2   force =     0.00000000    0.00000000    0.00000000
     atom    7 type  1   force =     0.00022340    0.00075423    0.00012410
     atom    8 type  1   force =     0.00022340    0.00075423    0.00012410
     atom    9 type  2   force =     0.00000000    0.00000000    0.00000000
     atom   10 type  2   force =     0.00000000    0.00000000    0.00000000
     atom   11 type  1   force =     0.00022340   -0.00075423    0.00012410
     atom   12 type  1   force =     0.00022340   -0.00075423    0.00012410
     atom   13 type  1   force =    -0.00002081    0.00000000   -0.00061635
     atom   14 type  1   force =    -0.00002081    0.00000000   -0.00061636
     atom   15 type  1   force =     0.00004130   -0.00000000   -0.00028767
     atom   16 type  1   force =     0.00004130   -0.00000000   -0.00028767
     atom   17 type  2   force =     0.00000000    0.00000000    0.00000000
     atom   18 type  2   force =     0.00000000    0.00000000    0.00000000
     atom   19 type  1   force =    -0.00008561   -0.00023905   -0.00000214
     atom   20 type  1   force =    -0.00008562   -0.00023905   -0.00000214
     atom   21 type  2   force =     0.00000000    0.00000000    0.00000000
     atom   22 type  2   force =     0.00000000    0.00000000    0.00000000
     atom   23 type  1   force =    -0.00008562    0.00023856   -0.00000214
     atom   24 type  1   force =    -0.00008562    0.00023856   -0.00000214
     atom   25 type  1   force =     0.00004127    0.00000000    0.00028556
     atom   26 type  1   force =     0.00004127    0.00000000    0.00028556
     atom   27 type  1   force =    -0.00002081   -0.00000000    0.00061391
     atom   28 type  1   force =    -0.00002081   -0.00000000    0.00061391
     atom   29 type  2   force =     0.00000000    0.00000000    0.00000000
     atom   30 type  2   force =     0.00000000    0.00000000    0.00000000
     atom   31 type  1   force =     0.00022342    0.00075408   -0.00012598
     atom   32 type  1   force =     0.00022342    0.00075408   -0.00012598
     atom   33 type  2   force =     0.00000000    0.00000000    0.00000000
     atom   34 type  2   force =     0.00000000    0.00000000    0.00000000
     atom   35 type  1   force =     0.00022342   -0.00075408   -0.00012598
     atom   36 type  1   force =     0.00022342   -0.00075408   -0.00012598
     atom   37 type  1   force =    -0.00003648   -0.00000000    0.01073624
     atom   38 type  1   force =    -0.00003647   -0.00000000    0.01073623
     atom   39 type  1   force =    -0.01791657   -0.00000000    0.00320603
     atom   40 type  1   force =    -0.01791661   -0.00000000    0.00320599
     atom   41 type  3   force =     0.00000000    0.00000000    0.00000000
     atom   42 type  3   force =     0.00000000    0.00000000    0.00000000
     atom   43 type  3   force =     0.00000000    0.00000000    0.00000000
     atom   44 type  3   force =     0.00000000    0.00000000    0.00000000
     The Hubbard contrib.    to forces
     atom    1 type  1   force =     0.00000000    0.00000000    0.00000000
     atom    2 type  1   force =     0.00000000    0.00000000    0.00000000
     atom    3 type  1   force =     0.00000000    0.00000000    0.00000000
     atom    4 type  1   force =     0.00000000    0.00000000    0.00000000
     atom    5 type  2   force =     0.00000000    0.00000000    0.00000000
     atom    6 type  2   force =     0.00000000    0.00000000    0.00000000
     atom    7 type  1   force =     0.00000000    0.00000000    0.00000000
     atom    8 type  1   force =     0.00000000    0.00000000    0.00000000
     atom    9 type  2   force =     0.00000000    0.00000000    0.00000000
     atom   10 type  2   force =     0.00000000    0.00000000    0.00000000
     atom   11 type  1   force =     0.00000000    0.00000000    0.00000000
     atom   12 type  1   force =     0.00000000    0.00000000    0.00000000
     atom   13 type  1   force =     0.00000000    0.00000000    0.00000000
     atom   14 type  1   force =     0.00000000    0.00000000    0.00000000
     atom   15 type  1   force =     0.00000000    0.00000000    0.00000000
     atom   16 type  1   force =     0.00000000    0.00000000    0.00000000
     atom   17 type  2   force =     0.00000000    0.00000000    0.00000000
     atom   18 type  2   force =     0.00000000    0.00000000    0.00000000
     atom   19 type  1   force =     0.00000000    0.00000000    0.00000000
     atom   20 type  1   force =     0.00000000    0.00000000    0.00000000
     atom   21 type  2   force =     0.00000000    0.00000000    0.00000000
     atom   22 type  2   force =     0.00000000    0.00000000    0.00000000
     atom   23 type  1   force =     0.00000000    0.00000000    0.00000000
     atom   24 type  1   force =     0.00000000    0.00000000    0.00000000
     atom   25 type  1   force =     0.00000000    0.00000000    0.00000000
     atom   26 type  1   force =     0.00000000    0.00000000    0.00000000
     atom   27 type  1   force =     0.00000000    0.00000000    0.00000000
     atom   28 type  1   force =     0.00000000    0.00000000    0.00000000
     atom   29 type  2   force =     0.00000000    0.00000000    0.00000000
     atom   30 type  2   force =     0.00000000    0.00000000    0.00000000
     atom   31 type  1   force =     0.00000000    0.00000000    0.00000000
     atom   32 type  1   force =     0.00000000    0.00000000    0.00000000
     atom   33 type  2   force =     0.00000000    0.00000000    0.00000000
     atom   34 type  2   force =     0.00000000    0.00000000    0.00000000
     atom   35 type  1   force =     0.00000000    0.00000000    0.00000000
     atom   36 type  1   force =     0.00000000    0.00000000    0.00000000
     atom   37 type  1   force =     0.00000000    0.00000000    0.00000000
     atom   38 type  1   force =     0.00000000    0.00000000    0.00000000
     atom   39 type  1   force =     0.00000000    0.00000000    0.00000000
     atom   40 type  1   force =     0.00000000    0.00000000    0.00000000
     atom   41 type  3   force =     0.00000000    0.00000000    0.00000000
     atom   42 type  3   force =     0.00000000    0.00000000    0.00000000
     atom   43 type  3   force =     0.00000000    0.00000000    0.00000000
     atom   44 type  3   force =     0.00000000    0.00000000    0.00000000
     The SCF correction term to forces
     atom    1 type  1   force =    -0.00000013    0.00000000    0.00000075
     atom    2 type  1   force =    -0.00000004   -0.00000000    0.00000132
     atom    3 type  1   force =    -0.00000018   -0.00000000    0.00000087
     atom    4 type  1   force =    -0.00000015   -0.00000000    0.00000096
     atom    5 type  2   force =     0.00000076   -0.00000000    0.00000231
     atom    6 type  2   force =     0.00000001   -0.00000000    0.00000225
     atom    7 type  1   force =     0.00000089   -0.00000082    0.00000139
     atom    8 type  1   force =    -0.00000025   -0.00000084    0.00000134
     atom    9 type  2   force =    -0.00000035    0.00000000    0.00000475
     atom   10 type  2   force =    -0.00000045    0.00000000    0.00000452
     atom   11 type  1   force =     0.00000089    0.00000082    0.00000139
     atom   12 type  1   force =    -0.00000025    0.00000084    0.00000134
     atom   13 type  1   force =    -0.00000007   -0.00000000    0.00000150
     atom   14 type  1   force =    -0.00000010   -0.00000000    0.00000145
     atom   15 type  1   force =     0.00000006    0.00000000    0.00000189
     atom   16 type  1   force =    -0.00000023    0.00000000    0.00000130
     atom   17 type  2   force =     0.00000094    0.00000000   -0.00000003
     atom   18 type  2   force =     0.00000064    0.00000000   -0.00000003
     atom   19 type  1   force =    -0.00000054   -0.00000029   -0.00000001
     atom   20 type  1   force =    -0.00000074   -0.00000044   -0.00000001
     atom   21 type  2   force =    -0.00000008    0.00000000   -0.00000002
     atom   22 type  2   force =    -0.00000067    0.00000000   -0.00000002
     atom   23 type  1   force =    -0.00000054    0.00000029   -0.00000001
     atom   24 type  1   force =    -0.00000074    0.00000044   -0.00000001
     atom   25 type  1   force =     0.00000006    0.00000000   -0.00000191
     atom   26 type  1   force =    -0.00000023    0.00000000   -0.00000132
     atom   27 type  1   force =    -0.00000007   -0.00000000   -0.00000152
     atom   28 type  1   force =    -0.00000010   -0.00000000   -0.00000147
     atom   29 type  2   force =     0.00000076   -0.00000000   -0.00000233
     atom   30 type  2   force =     0.00000001   -0.00000000   -0.00000226
     atom   31 type  1   force =     0.00000089   -0.00000082   -0.00000140
     atom   32 type  1   force =    -0.00000025   -0.00000084   -0.00000135
     atom   33 type  2   force =    -0.00000035    0.00000000   -0.00000478
     atom   34 type  2   force =    -0.00000045    0.00000000   -0.00000455
     atom   35 type  1   force =     0.00000089    0.00000082   -0.00000140
     atom   36 type  1   force =    -0.00000025    0.00000084   -0.00000135
     atom   37 type  1   force =    -0.00000018    0.00000000   -0.00000087
     atom   38 type  1   force =    -0.00000015    0.00000000   -0.00000096
     atom   39 type  1   force =    -0.00000013    0.00000000   -0.00000074
     atom   40 type  1   force =    -0.00000004    0.00000000   -0.00000132
     atom   41 type  3   force =     0.00000014   -0.00000000   -0.00000002
     atom   42 type  3   force =     0.00000014    0.00000000    0.00000002
     atom   43 type  3   force =     0.00000006   -0.00000000    0.00000004
     atom   44 type  3   force =     0.00000006   -0.00000000   -0.00000004

     Total force =     0.000431     Total SCF correction =     0.000013
     Energy error            =      6.0E-07 Ry
     Gradient error          =      1.0E-04 Ry/Bohr

     bfgs converged in  25 scf cycles and  24 bfgs steps
     (criteria: energy <  1.0E-04 Ry, force <  1.0E-04 Ry/Bohr)

     End of BFGS Geometry Optimization

     Final energy             =   -3432.6240493024 Ry

     File /storage/home/mgm6007/ixd4/Maria/StrainJin_Files/RuO2-110-0-01/RuO2-110-0-01.bfgs deleted, as requested
Begin final coordinates

ATOMIC_POSITIONS (crystal)
O            -0.0108098126        0.5000000000        0.2710605084
O             0.4891898780        0.5000000000        0.2710605396
O            -0.0000510426        0.0000000000        0.3065449398
O             0.4999489630        0.0000000000        0.3065449437
Ru            0.2498743595        0.0000000000        0.3534096360
Ru            0.7498743607        0.0000000000        0.3534096360
O             0.2496009778        0.3145735784        0.3580762107
O             0.7496009779        0.3145735849        0.3580761984
Ru            0.0003845279        0.5000000000        0.3579586773
Ru            0.5003845351        0.5000000000        0.3579586812
O             0.2496009778        0.6854264216        0.3580762107
O             0.7496009779        0.6854264151        0.3580761984
O             0.0000378021        0.0000000000        0.4114428119
O             0.5000378303        0.0000000000        0.4114428063
O             0.0034694666        0.5000000000        0.4457599698
O             0.5034694934        0.5000000000        0.4457599816
Ru            0.0003402572        0.0000000000        0.5000010000
Ru            0.5003402631        0.0000000000        0.5000010000
O             0.2500348387        0.1864159748        0.5000010000
O             0.7500348408        0.1864159757        0.5000010000
Ru            0.2520991665        0.5000000000        0.5000010000
Ru            0.7520991962        0.5000000000        0.5000010000
O             0.2500348387        0.8135850252        0.5000010000
O             0.7500348408        0.8135850243        0.5000010000
O             0.0034694666        0.5000000000        0.5542410302
O             0.5034694934        0.5000000000        0.5542410184
O             0.0000378021        0.0000000000        0.5885581881
O             0.5000378303        0.0000000000        0.5885581937
Ru            0.2498743595        0.0000000000        0.6465913640
Ru            0.7498743607        0.0000000000        0.6465913640
O             0.2496009778        0.3145735784        0.6419247893
O             0.7496009779        0.3145735849        0.6419248016
Ru            0.0003845279        0.5000000000        0.6420423227
Ru            0.5003845351        0.5000000000        0.6420423188
O             0.2496009778        0.6854264216        0.6419247893
O             0.7496009779        0.6854264151        0.6419248016
O            -0.0000510426        0.0000000000        0.6934570602
O             0.4999489630        0.0000000000        0.6934570563
O            -0.0108098126        0.5000000000        0.7289404916
O             0.4891898780        0.5000000000        0.7289404604
H             0.1242733606        0.5000000000        0.2519553087
H             0.1242733606        0.5000000000        0.7480446913
H             0.6242732458        0.5000000000        0.2519552446
H             0.6242732458        0.5000000000        0.7480447554
End final coordinates

     Writing all to output data dir /storage/home/mgm6007/ixd4/Maria/StrainJin_Files/RuO2-110-0-01/RuO2-110-0-01.save/

     General routines

     Parallel routines

     Environ routines

   This run was terminated on:  22:35:19  25Jul2023

   JOB DONE.