     Program PWSCF v.7.2 starts on 19Jul2023 at 22: 0:24
        Git branch: heads/qe-7.2
        Last git commit: b4c5e8deeb7d1863e7553a87b45f8d22c21926a5
        Last git commit date: Mon Mar 27 16:12:09 2023 +0000
        Last git commit subject: Merge branch 'merge_fix_hubbard' into 'develop'

     Reading input from RuO2-110-0-0124.in

     Current dimensions of program PWSCF are:
     Max number of different atomic species (ntypx) = 10
     Max number of k-points (npk) =  40000
     Max angular momentum in pseudopotentials (lmaxx) =  4

     Reading input from environ.in:
     * Environ restarting
     * setting up water environment
     * using electronic solvent mode
     * setting boundary derivatives method to SCCS default

     file O.pbe-n-kjpaw_psl.0.1.UPF: wavefunction(s)  2P renormalized
     Message from routine setup:
     using ibrav=0 with symmetry is DISCOURAGED, use correct ibrav instead

     R & G space division:  proc/nbgrp/npool/nimage =      20
     Subspace diagonalization in iterative solution of the eigenvalue problem:
     one sub-group per band group will be used

     Using Slab Decomposition

     bravais-lattice index     =            0
     lattice parameter (alat)  =      12.1041  a.u.
     unit-cell volume          =    5954.5483 (a.u.)^3
     number of atoms/cell      =           48
     number of atomic types    =            3
     number of electrons       =       368.00
     number of Kohn-Sham states=          221
     kinetic-energy cutoff     =      50.0000  Ry
     charge density cutoff     =     500.0000  Ry
     scf convergence threshold =      1.0E-09
     mixing beta               =       0.7000
     number of iterations used =            8  local-TF  mixing
     energy convergence thresh.=      1.0E-04
     force convergence thresh. =      1.0E-04
     Exchange-correlation= PBE
                           (   1   4   3   4   0   0   0)
     nstep                     =          200

                                  Environ Setup Summary

          O. Andreussi, I. Dabo and N. Marzari, J. Chem. Phys. 136, 064102 (2012)

     in publications or presentations arising from this work.

     Parameters

     compensation onset threshold      =               0.1000E+00
     static permittivity               =                    78.30
     surface tension in input (dyn/cm) =                    47.90
     surface tension in internal units =               0.6153E-04
     external pressure in input (GPa)  =                    -0.36
     external pressure in inter. units =              -0.2447E-04

     Solvent Boundary

     solvent mode                      =               electronic
     derivatives method                =                    chain
     numerical core for derivatives    =                      fft
     switching function adopted        =                     SCCS
     density limit for vacuum region   =               0.5000E-02
     density limit for bulk solvent    =               0.1000E-03

     Electrostatic Setup

     electrostatic problem to solve    =              generalized
     numerical solver adopted          =                       cg
     type of auxiliary density adopted =                     none
     numerical core for poisson        =                      fft
     type of pbc corrections           =                parabolic
     numerical core for corrections    =                      1da

     celldm(1)=  12.104053  celldm(2)=   0.000000  celldm(3)=   0.000000
     celldm(4)=   0.000000  celldm(5)=   0.000000  celldm(6)=   0.000000

     crystal axes: (cart. coord. in units of alat)
               a(1) = (   1.000000   0.000000   0.000000 )
               a(2) = (   0.000000   0.971735   0.000000 )
               a(3) = (   0.000000   0.000000   3.455479 )

     reciprocal axes: (cart. coord. in units 2 pi/alat)
               b(1) = (  1.000000  0.000000  0.000000 )
               b(2) = (  0.000000  1.029087  0.000000 )
               b(3) = (  0.000000  0.000000  0.289395 )

     PseudoPot. # 1 for O  read from file:
     /gpfs/group/ixd4/default/Simon/pseudopotentials/materialscloud/SSSP_1.3.0_PBE_efficiency/O.pbe-n-kjpaw_psl.0.1.UPF
     MD5 check sum: 0234752ac141de4415c5fc33072bef88
     Pseudo is Projector augmented-wave + core cor, Zval =  6.0
     Generated using "atomic" code by A. Dal Corso  v.5.0.99 svn rev. 10869
     Shape of augmentation charge: BESSEL
     Using radial grid of 1095 points,  4 beta functions with:
                l(1) =   0
                l(2) =   0
                l(3) =   1
                l(4) =   1
     Q(r) pseudized with 0 coefficients

     PseudoPot. # 2 for Ru read from file:
     /gpfs/group/ixd4/default/Simon/pseudopotentials/materialscloud/SSSP_1.3.0_PBE_efficiency/Ru_ONCV_PBE-1.0.oncvpsp.upf
     MD5 check sum: be037bb81c227cfb9b1461a9f099f4bd
     Pseudo is Norm-conserving, Zval = 16.0
     Generated using ONCVPSP code by D. R. Hamann
     Using radial grid of 1458 points,  6 beta functions with:
                l(1) =   0
                l(2) =   0
                l(3) =   1
                l(4) =   1
                l(5) =   2
                l(6) =   2

     PseudoPot. # 3 for H  read from file:
     /gpfs/group/ixd4/default/Simon/pseudopotentials/materialscloud/SSSP_1.3.0_PBE_efficiency/H.pbe-rrkjus_psl.1.0.0.UPF
     MD5 check sum: f52b6d4d1c606e5624b1dc7b2218f220
     Pseudo is Ultrasoft, Zval =  1.0
     Generated using "atomic" code by A. Dal Corso  v.5.1
     Using radial grid of  929 points,  2 beta functions with:
                l(1) =   0
                l(2) =   0
     Q(r) pseudized with 0 coefficients

     atomic species   valence    mass     pseudopotential
        O              6.00    15.99940     O ( 1.00)
        Ru            16.00   101.07000     Ru( 1.00)
        H              1.00     1.00794     H ( 1.00)

      4 Sym. Ops. (no inversion) found

   Cartesian axes

     site n.     atom                  positions (alat units)
         1           O   tau(   1) = (  -0.0037130   0.4858677   0.9285449  )
         2           O   tau(   2) = (   0.4958301   0.4858677   0.9227111  )
         3           O   tau(   3) = (  -0.0029101   0.0000000   0.9964005  )
         4           O   tau(   4) = (   0.4983427   0.0000000   1.0633285  )
         5           Ru  tau(   5) = (   0.2561548   0.0000000   1.2342427  )
         6           Ru  tau(   6) = (   0.7401229   0.0000000   1.2345863  )
         7           O   tau(   7) = (   0.2471641   0.2982831   1.2316580  )
         8           O   tau(   8) = (   0.7493781   0.2978884   1.2315499  )
         9           Ru  tau(   9) = (  -0.0021851   0.4858677   1.2405363  )
        10           Ru  tau(  10) = (   0.4983876   0.4858677   1.2279097  )
        11           O   tau(  11) = (   0.2471641   0.6734522   1.2316580  )
        12           O   tau(  12) = (   0.7493781   0.6738470   1.2315499  )
        13           O   tau(  13) = (  -0.0011417   0.0000000   1.4215529  )
        14           O   tau(  14) = (   0.4977025   0.0000000   1.4244320  )
        15           O   tau(  15) = (  -0.0014921   0.4858677   1.5414270  )
        16           O   tau(  16) = (   0.4987476   0.4858677   1.5274632  )
        17           Ru  tau(  17) = (  -0.0005083   0.0000000   1.7277432  )
        18           Ru  tau(  18) = (   0.4965521   0.0000000   1.7277432  )
        19           O   tau(  19) = (   0.2476834   0.1897971   1.7277432  )
        20           O   tau(  20) = (   0.7488218   0.1862930   1.7277432  )
        21           Ru  tau(  21) = (   0.2528314   0.4858677   1.7277432  )
        22           Ru  tau(  22) = (   0.7431848   0.4858677   1.7277432  )
        23           O   tau(  23) = (   0.2476834   0.7819392   1.7277432  )
        24           O   tau(  24) = (   0.7488218   0.7854434   1.7277432  )
        25           O   tau(  25) = (  -0.0014921   0.4858677   1.9140559  )
        26           O   tau(  26) = (   0.4987476   0.4858677   1.9280198  )
        27           O   tau(  27) = (  -0.0011417   0.0000000   2.0339300  )
        28           O   tau(  28) = (   0.4977025   0.0000000   2.0310510  )
        29           Ru  tau(  29) = (   0.2561548   0.0000000   2.2212402  )
        30           Ru  tau(  30) = (   0.7401229   0.0000000   2.2208967  )
        31           O   tau(  31) = (   0.2471641   0.2982831   2.2238249  )
        32           O   tau(  32) = (   0.7493781   0.2978884   2.2239331  )
        33           Ru  tau(  33) = (  -0.0021851   0.4858677   2.2149466  )
        34           Ru  tau(  34) = (   0.4983876   0.4858677   2.2275732  )
        35           O   tau(  35) = (   0.2471641   0.6734522   2.2238249  )
        36           O   tau(  36) = (   0.7493781   0.6738470   2.2239331  )
        37           O   tau(  37) = (  -0.0029101   0.0000000   2.4590859  )
        38           O   tau(  38) = (   0.4983427   0.0000000   2.3921579  )
        39           O   tau(  39) = (  -0.0037130   0.4858677   2.5269380  )
        40           O   tau(  40) = (   0.4958301   0.4858677   2.5327719  )
        41           H   tau(  41) = (   0.1429733   0.4858677   0.8831209  )
        42           H   tau(  42) = (   0.1429733   0.4858677   2.5723586  )
        43           H   tau(  43) = (   0.6417831   0.4858677   0.8747647  )
        44           H   tau(  44) = (   0.6417831   0.4858677   2.5807148  )
        45           H   tau(  45) = (  -0.0044760   0.1172600   0.9049006  )
        46           H   tau(  46) = (  -0.0044760   0.1172600   2.5505789  )
        47           H   tau(  47) = (  -0.0044760   0.8544754   0.9049006  )
        48           H   tau(  48) = (  -0.0044760   0.8544754   2.5505789  )

     number of k points=     1  Marzari-Vanderbilt smearing, width (Ry)=  0.0300
                       cart. coord. in units 2pi/alat
        k(    1) = (   0.2500000   0.2572717   0.0000000), wk =   2.0000000

     Check: negative core charge=   -0.000001

     Initial potential from superposition of free atoms

     starting charge     367.9933, renormalised to     368.0000

     add environment contribution to local potential
     Polarization accuracy = 9.0E-12, # of iterations =  23

     negative rho (up, down):  2.633E-05 0.000E+00
     Starting wfcs are  240 randomized atomic wfcs
     Checking if some PAW data can be deallocated...

     Self-consistent Calculation

     iteration #  1     ecut=    50.00 Ry     beta= 0.70
     Davidson diagonalization with overlap
     ethr =  1.00E-02,  avg # of iterations =  2.0

     negative rho (up, down):  3.776E-08 0.000E+00

     total energy              =   -3435.58883150 Ry
     estimated scf accuracy    <       9.17946559 Ry
     electrostatic embedding   =      -0.00184224 Ry
     cavitation energy         =       0.01980200 Ry
     PV energy                 =      -0.08768302 Ry
     correction to one-el term =     218.73714300 Ry

[...]

     the potential shift due to the Gaussian-smeared nuclei is    -1.3208 ev

     End of self-consistent calculation

          k = 0.2500 0.2573 0.0000 ( 35510 PWs)   bands (ev):

[...]
     atom   27 type  1   force =     0.03779597   -0.00000000  -38.61168602
     atom   28 type  1   force =    -0.03345715   -0.00000000  -35.94601241
     atom   29 type  2   force =     6.03635013   -0.00000000 -167.87665658
     atom   30 type  2   force =    -5.93878632    0.00000000 -167.76692322
     atom   31 type  1   force =     0.56839022    1.86478715  -62.67531238
     atom   32 type  1   force =    -0.59081734    1.79609915  -63.10124246
     atom   33 type  2   force =     0.33811943    0.00000000 -163.90529916
     atom   34 type  2   force =    -0.21019583   -0.00000000 -168.11846030
     atom   35 type  1   force =     0.56839022   -1.86478715  -62.67531238
     atom   36 type  1   force =    -0.59081734   -1.79609915  -63.10124246
     atom   37 type  1   force =    -0.11129771    0.00000000  -88.93695011
     atom   38 type  1   force =     0.00817581    0.00000000  -92.18651056
     atom   39 type  1   force =     1.26201827   -0.00000000  -92.32326143
     atom   40 type  1   force =     1.01166313    0.00000000  -93.22244256
     atom   41 type  3   force =    -2.78869798    0.00000000   15.81367300
     atom   42 type  3   force =    -2.78869798   -0.00000000  -15.81367300
     atom   43 type  3   force =    -2.80665351    0.00000000   15.95130522
     atom   44 type  3   force =    -2.80665351    0.00000000  -15.95130522
     atom   45 type  3   force =     0.05042593   -2.27686994   16.57081815
     atom   46 type  3   force =     0.05042593   -2.27686994  -16.57081815
     atom   47 type  3   force =     0.05042593    2.27686994   16.57081815
     atom   48 type  3   force =     0.05042593    2.27686994  -16.57081815
     The core correction contribution to forces
     atom    1 type  1   force =    -0.01700752   -0.00000000   -0.00368768
     atom    2 type  1   force =    -0.01737516   -0.00000000   -0.00302859
     atom    3 type  1   force =     0.00052908   -0.00000000    0.01329913
     atom    4 type  1   force =    -0.00003557   -0.00000000   -0.01110830
     atom    5 type  2   force =     0.00000000    0.00000000    0.00000000
     atom    6 type  2   force =     0.00000000    0.00000000    0.00000000
     atom    7 type  1   force =     0.00005229    0.00021768   -0.00002319
     atom    8 type  1   force =     0.00017503    0.00024668   -0.00013454
     atom    9 type  2   force =     0.00000000    0.00000000    0.00000000
     atom   10 type  2   force =     0.00000000    0.00000000    0.00000000
     atom   11 type  1   force =     0.00005229   -0.00021768   -0.00002319
     atom   12 type  1   force =     0.00017503   -0.00024668   -0.00013454
     atom   13 type  1   force =    -0.00000292    0.00000000   -0.00072518
     atom   14 type  1   force =     0.00007159    0.00000000    0.00242873
     atom   15 type  1   force =     0.00007345   -0.00000000    0.00012692
     atom   16 type  1   force =    -0.00007638    0.00000000   -0.00113881
     atom   17 type  2   force =     0.00000000    0.00000000    0.00000000
     atom   18 type  2   force =     0.00000000    0.00000000    0.00000000
     atom   19 type  1   force =    -0.00033084    0.00011111   -0.00000198
     atom   20 type  1   force =     0.00028311    0.00010646   -0.00000198
     atom   21 type  2   force =     0.00000000    0.00000000    0.00000000
     atom   22 type  2   force =     0.00000000    0.00000000    0.00000000
     atom   23 type  1   force =    -0.00033085   -0.00011173   -0.00000198
     atom   24 type  1   force =     0.00028311   -0.00010707   -0.00000198
     atom   25 type  1   force =     0.00007342    0.00000000   -0.00012914
     atom   26 type  1   force =    -0.00007639   -0.00000000    0.00113668
     atom   27 type  1   force =    -0.00000292    0.00000000    0.00072293
     atom   28 type  1   force =     0.00007161    0.00000000   -0.00243116
     atom   29 type  2   force =     0.00000000    0.00000000    0.00000000
     atom   30 type  2   force =     0.00000000    0.00000000    0.00000000
     atom   31 type  1   force =     0.00005242    0.00021773    0.00002129
     atom   32 type  1   force =     0.00017493    0.00024674    0.00013261
     atom   33 type  2   force =     0.00000000    0.00000000    0.00000000
     atom   34 type  2   force =     0.00000000    0.00000000    0.00000000
     atom   35 type  1   force =     0.00005242   -0.00021773    0.00002129
     atom   36 type  1   force =     0.00017493   -0.00024674    0.00013261
     atom   37 type  1   force =     0.00052913   -0.00000000   -0.01330291
     atom   38 type  1   force =    -0.00003557   -0.00000000    0.01110450
     atom   39 type  1   force =    -0.01700826   -0.00000000    0.00368530
     atom   40 type  1   force =    -0.01737595   -0.00000000    0.00302628
     atom   41 type  3   force =     0.00000000    0.00000000    0.00000000
     atom   42 type  3   force =     0.00000000    0.00000000    0.00000000
     atom   43 type  3   force =     0.00000000    0.00000000    0.00000000
     atom   44 type  3   force =     0.00000000    0.00000000    0.00000000
     atom   45 type  3   force =     0.00000000    0.00000000    0.00000000
     atom   46 type  3   force =     0.00000000    0.00000000    0.00000000
     atom   47 type  3   force =     0.00000000    0.00000000    0.00000000
     atom   48 type  3   force =     0.00000000    0.00000000    0.00000000
     The Hubbard contrib.    to forces
     atom    1 type  1   force =     0.00000000    0.00000000    0.00000000
     atom    2 type  1   force =     0.00000000    0.00000000    0.00000000
     atom    3 type  1   force =     0.00000000    0.00000000    0.00000000
     atom    4 type  1   force =     0.00000000    0.00000000    0.00000000
     atom    5 type  2   force =     0.00000000    0.00000000    0.00000000
     atom    6 type  2   force =     0.00000000    0.00000000    0.00000000
     atom    7 type  1   force =     0.00000000    0.00000000    0.00000000
     atom    8 type  1   force =     0.00000000    0.00000000    0.00000000
     atom    9 type  2   force =     0.00000000    0.00000000    0.00000000
     atom   10 type  2   force =     0.00000000    0.00000000    0.00000000
     atom   11 type  1   force =     0.00000000    0.00000000    0.00000000
     atom   12 type  1   force =     0.00000000    0.00000000    0.00000000
     atom   13 type  1   force =     0.00000000    0.00000000    0.00000000
     atom   14 type  1   force =     0.00000000    0.00000000    0.00000000
     atom   15 type  1   force =     0.00000000    0.00000000    0.00000000
     atom   16 type  1   force =     0.00000000    0.00000000    0.00000000
     atom   17 type  2   force =     0.00000000    0.00000000    0.00000000
     atom   18 type  2   force =     0.00000000    0.00000000    0.00000000
     atom   19 type  1   force =     0.00000000    0.00000000    0.00000000
     atom   20 type  1   force =     0.00000000    0.00000000    0.00000000
     atom   21 type  2   force =     0.00000000    0.00000000    0.00000000
     atom   22 type  2   force =     0.00000000    0.00000000    0.00000000
     atom   23 type  1   force =     0.00000000    0.00000000    0.00000000
     atom   24 type  1   force =     0.00000000    0.00000000    0.00000000
     atom   25 type  1   force =     0.00000000    0.00000000    0.00000000
     atom   26 type  1   force =     0.00000000    0.00000000    0.00000000
     atom   27 type  1   force =     0.00000000    0.00000000    0.00000000
     atom   28 type  1   force =     0.00000000    0.00000000    0.00000000
     atom   29 type  2   force =     0.00000000    0.00000000    0.00000000
     atom   30 type  2   force =     0.00000000    0.00000000    0.00000000
     atom   31 type  1   force =     0.00000000    0.00000000    0.00000000
     atom   32 type  1   force =     0.00000000    0.00000000    0.00000000
     atom   33 type  2   force =     0.00000000    0.00000000    0.00000000
     atom   34 type  2   force =     0.00000000    0.00000000    0.00000000
     atom   35 type  1   force =     0.00000000    0.00000000    0.00000000
     atom   36 type  1   force =     0.00000000    0.00000000    0.00000000
     atom   37 type  1   force =     0.00000000    0.00000000    0.00000000
     atom   38 type  1   force =     0.00000000    0.00000000    0.00000000
     atom   39 type  1   force =     0.00000000    0.00000000    0.00000000
     atom   40 type  1   force =     0.00000000    0.00000000    0.00000000
     atom   41 type  3   force =     0.00000000    0.00000000    0.00000000
     atom   42 type  3   force =     0.00000000    0.00000000    0.00000000
     atom   43 type  3   force =     0.00000000    0.00000000    0.00000000
     atom   44 type  3   force =     0.00000000    0.00000000    0.00000000
     atom   45 type  3   force =     0.00000000    0.00000000    0.00000000
     atom   46 type  3   force =     0.00000000    0.00000000    0.00000000
     atom   47 type  3   force =     0.00000000    0.00000000    0.00000000
     atom   48 type  3   force =     0.00000000    0.00000000    0.00000000
     The SCF correction term to forces
     atom    1 type  1   force =     0.00000103   -0.00000000   -0.00000010
     atom    2 type  1   force =    -0.00000093   -0.00000000    0.00000123
     atom    3 type  1   force =    -0.00000042   -0.00000000    0.00000207
     atom    4 type  1   force =    -0.00000016    0.00000000    0.00000121
     atom    5 type  2   force =     0.00000327    0.00000000    0.00000472
     atom    6 type  2   force =    -0.00000317    0.00000000    0.00000377
     atom    7 type  1   force =     0.00000162   -0.00000041    0.00000200
     atom    8 type  1   force =    -0.00000159   -0.00000044    0.00000143
     atom    9 type  2   force =     0.00000088   -0.00000000    0.00000468
     atom   10 type  2   force =    -0.00000096   -0.00000000    0.00000373
     atom   11 type  1   force =     0.00000162    0.00000041    0.00000200
     atom   12 type  1   force =    -0.00000159    0.00000044    0.00000143
     atom   13 type  1   force =     0.00000035    0.00000000    0.00000139
     atom   14 type  1   force =    -0.00000037    0.00000000    0.00000145
     atom   15 type  1   force =     0.00000072   -0.00000000    0.00000201
     atom   16 type  1   force =    -0.00000066   -0.00000000    0.00000114
     atom   17 type  2   force =     0.00000050    0.00000000    0.00000001
     atom   18 type  2   force =    -0.00000051    0.00000000    0.00000001
     atom   19 type  1   force =     0.00000094    0.00000035    0.00000000
     atom   20 type  1   force =    -0.00000106   -0.00000037    0.00000000
     atom   21 type  2   force =     0.00000147    0.00000000    0.00000001
     atom   22 type  2   force =    -0.00000156   -0.00000000    0.00000000
     atom   23 type  1   force =     0.00000094   -0.00000035    0.00000000
     atom   24 type  1   force =    -0.00000106    0.00000037    0.00000000
     atom   25 type  1   force =     0.00000072   -0.00000000   -0.00000201
     atom   26 type  1   force =    -0.00000067   -0.00000000   -0.00000114
     atom   27 type  1   force =     0.00000036    0.00000000   -0.00000138
     atom   28 type  1   force =    -0.00000038    0.00000000   -0.00000145
     atom   29 type  2   force =     0.00000326    0.00000000   -0.00000472
     atom   30 type  2   force =    -0.00000317    0.00000000   -0.00000378
     atom   31 type  1   force =     0.00000162   -0.00000041   -0.00000200
     atom   32 type  1   force =    -0.00000159   -0.00000044   -0.00000143
     atom   33 type  2   force =     0.00000089   -0.00000000   -0.00000468
     atom   34 type  2   force =    -0.00000097   -0.00000000   -0.00000373
     atom   35 type  1   force =     0.00000162    0.00000041   -0.00000200
     atom   36 type  1   force =    -0.00000159    0.00000044   -0.00000143
     atom   37 type  1   force =    -0.00000041    0.00000000   -0.00000208
     atom   38 type  1   force =    -0.00000017    0.00000000   -0.00000122
     atom   39 type  1   force =     0.00000103   -0.00000000    0.00000010
     atom   40 type  1   force =    -0.00000093   -0.00000000   -0.00000123
     atom   41 type  3   force =     0.00000020   -0.00000000    0.00000004
     atom   42 type  3   force =     0.00000020    0.00000000   -0.00000004
     atom   43 type  3   force =    -0.00000016    0.00000000    0.00000015
     atom   44 type  3   force =    -0.00000016    0.00000000   -0.00000015
     atom   45 type  3   force =    -0.00000001    0.00000010    0.00000009
     atom   46 type  3   force =    -0.00000001    0.00000010   -0.00000009
     atom   47 type  3   force =    -0.00000001   -0.00000010    0.00000009
     atom   48 type  3   force =    -0.00000001   -0.00000010   -0.00000009

     Total force =     0.000450     Total SCF correction =     0.000017
     Energy error            =      4.8E-07 Ry
     Gradient error          =      9.6E-05 Ry/Bohr

     bfgs converged in  35 scf cycles and  34 bfgs steps
     (criteria: energy <  1.0E-04 Ry, force <  1.0E-04 Ry/Bohr)

     End of BFGS Geometry Optimization

     Final energy             =   -3437.7894375705 Ry

     File /storage/home/mgm6007/ixd4/Maria/Strain0_Files/RuO2-110-0-0124/RuO2-110-0-0124.bfgs deleted, as requested
Begin final coordinates

ATOMIC_POSITIONS (crystal)
O            -0.0006754998        0.5000000000        0.2672558601
O             0.4910701253        0.5000000000        0.2665676051
O            -0.0029640281        0.0000000000        0.2883508522
O             0.4983283270        0.0000000000        0.3068488514
Ru            0.2579645879        0.0000000000        0.3570952756
Ru            0.7389963685        0.0000000000        0.3569957415
O             0.2474919876        0.3099247630        0.3564331989
O             0.7499837582        0.3101358362        0.3558401157
Ru           -0.0011412439        0.5000000000        0.3584014050
Ru            0.4986551233        0.5000000000        0.3551178581
O             0.2474919876        0.6900752370        0.3564331989
O             0.7499837582        0.6898641638        0.3558401157
O            -0.0015593431        0.0000000000        0.4110189517
O             0.4985887832        0.0000000000        0.4117653419
O            -0.0008797764        0.5000000000        0.4459202375
O             0.4992894022        0.5000000000        0.4427696641
Ru           -0.0014245897        0.0000000000        0.5000010000
Ru            0.4985746686        0.0000000000        0.5000010000
O             0.2479082638        0.1898601274        0.5000010000
O             0.7492973023        0.1898003677        0.5000010000
Ru            0.2524861214        0.5000000000        0.5000010000
Ru            0.7453612924        0.5000000000        0.5000010000
O             0.2479082638        0.8101408726        0.5000010000
O             0.7492973023        0.8102006323        0.5000010000
O            -0.0008797764        0.5000000000        0.5540807625
O             0.4992894022        0.5000000000        0.5572313359
O            -0.0015593431        0.0000000000        0.5889820483
O             0.4985887832        0.0000000000        0.5882356581
Ru            0.2579645879        0.0000000000        0.6429057244
Ru            0.7389963685        0.0000000000        0.6430052585
O             0.2474919876        0.3099247630        0.6435678011
O             0.7499837582        0.3101358362        0.6441608843
Ru           -0.0011412439        0.5000000000        0.6415995950
Ru            0.4986551233        0.5000000000        0.6448831419
O             0.2474919876        0.6900752370        0.6435678011
O             0.7499837582        0.6898641638        0.6441608843
O            -0.0029640281        0.0000000000        0.7116511478
O             0.4983283270        0.0000000000        0.6931531486
O            -0.0006754998        0.5000000000        0.7327451399
O             0.4910701253        0.5000000000        0.7334333949
H             0.1458801302        0.5000000000        0.2545123922
H             0.1458801302        0.5000000000        0.7454876078
H             0.6346053615        0.5000000000        0.2514093258
H             0.6346053615        0.5000000000        0.7485906742
H            -0.0052720609        0.1287917617        0.2621663417
H            -0.0052720609        0.1287917617        0.7378336583
H            -0.0052720609        0.8712082383        0.2621663417
H            -0.0052720609        0.8712082383        0.7378336583
End final coordinates

     Writing all to output data dir /storage/home/mgm6007/ixd4/Maria/Strain0_Files/RuO2-110-0-0124/RuO2-110-0-0124.save/

     General routines

     Parallel routines

     Environ routines

   This run was terminated on:  23: 5:43  21Jul2023

   JOB DONE.