     Program PWSCF v.7.2 starts on 23Jul2023 at 14:25:34
        Git branch: heads/qe-7.2
        Last git commit: b4c5e8deeb7d1863e7553a87b45f8d22c21926a5
        Last git commit date: Mon Mar 27 16:12:09 2023 +0000
        Last git commit subject: Merge branch 'merge_fix_hubbard' into 'develop'

     Reading input from RuO2-110-0-012345.in

     Current dimensions of program PWSCF are:
     Max number of different atomic species (ntypx) = 10
     Max number of k-points (npk) =  40000
     Max angular momentum in pseudopotentials (lmaxx) =  4

     Reading input from environ.in:
     * Environ restarting
     * setting up water environment
     * using electronic solvent mode
     * setting boundary derivatives method to SCCS default

     File /storage/home/mgm6007/ixd4/Maria/Strain2_Files/RuO2-110-0-012345/RuO2-110-0-012345.update deleted, as requested

     File /storage/home/mgm6007/ixd4/Maria/Strain2_Files/RuO2-110-0-012345/RuO2-110-0-012345.bfgs deleted, as requested
     file O.pbe-n-kjpaw_psl.0.1.UPF: wavefunction(s)  2P renormalized
     Found identity + ( -0.5000  0.0000 -0.0000) symmetry
     This is a supercell, fractional translations are disabled
     Message from routine setup:
     using ibrav=0 with symmetry is DISCOURAGED, use correct ibrav instead

     R & G space division:  proc/nbgrp/npool/nimage =      20
     Subspace diagonalization in iterative solution of the eigenvalue problem:
     one sub-group per band group will be used

     Using Slab Decomposition

     bravais-lattice index     =            0
     lattice parameter (alat)  =      12.2467  a.u.
     unit-cell volume          =    5883.2137 (a.u.)^3
     number of atoms/cell      =           52
     number of atomic types    =            3
     number of electrons       =       372.00
     number of Kohn-Sham states=          223
     kinetic-energy cutoff     =      50.0000  Ry
     charge density cutoff     =     500.0000  Ry
     scf convergence threshold =      1.0E-09
     mixing beta               =       0.7000
     number of iterations used =            8  local-TF  mixing
     energy convergence thresh.=      1.0E-04
     force convergence thresh. =      1.0E-04
     Exchange-correlation= PBE
                           (   1   4   3   4   0   0   0)
     nstep                     =          200

                                  Environ Setup Summary

          O. Andreussi, I. Dabo and N. Marzari, J. Chem. Phys. 136, 064102 (2012)

     in publications or presentations arising from this work.

     Parameters

     compensation onset threshold      =               0.1000E+00
     static permittivity               =                    78.30
     surface tension in input (dyn/cm) =                    47.90
     surface tension in internal units =               0.6153E-04
     external pressure in input (GPa)  =                    -0.36
     external pressure in inter. units =              -0.2447E-04

     Solvent Boundary

     solvent mode                      =               electronic
     derivatives method                =                    chain
     numerical core for derivatives    =                      fft
     switching function adopted        =                     SCCS
     density limit for vacuum region   =               0.5000E-02
     density limit for bulk solvent    =               0.1000E-03

     Electrostatic Setup

     electrostatic problem to solve    =              generalized
     numerical solver adopted          =                       cg
     type of auxiliary density adopted =                     none
     numerical core for poisson        =                      fft
     type of pbc corrections           =                parabolic
     numerical core for corrections    =                      1da

     celldm(1)=  12.246684  celldm(2)=   0.000000  celldm(3)=   0.000000
     celldm(4)=   0.000000  celldm(5)=   0.000000  celldm(6)=   0.000000

     crystal axes: (cart. coord. in units of alat)
               a(1) = (   1.000000   0.000000   0.000000 )
               a(2) = (   0.000000   0.937861   0.000000 )
               a(3) = (   0.000000   0.000000   3.415235 )

     reciprocal axes: (cart. coord. in units 2 pi/alat)
               b(1) = (  1.000000  0.000000  0.000000 )
               b(2) = (  0.000000  1.066256  0.000000 )
               b(3) = (  0.000000  0.000000  0.292806 )

     PseudoPot. # 1 for O  read from file:
     /gpfs/group/ixd4/default/Simon/pseudopotentials/materialscloud/SSSP_1.3.0_PBE_efficiency/O.pbe-n-kjpaw_psl.0.1.UPF
     MD5 check sum: 0234752ac141de4415c5fc33072bef88
     Pseudo is Projector augmented-wave + core cor, Zval =  6.0
     Generated using "atomic" code by A. Dal Corso  v.5.0.99 svn rev. 10869
     Shape of augmentation charge: BESSEL
     Using radial grid of 1095 points,  4 beta functions with:
                l(1) =   0
                l(2) =   0
                l(3) =   1
                l(4) =   1
     Q(r) pseudized with 0 coefficients

     PseudoPot. # 2 for Ru read from file:
     /gpfs/group/ixd4/default/Simon/pseudopotentials/materialscloud/SSSP_1.3.0_PBE_efficiency/Ru_ONCV_PBE-1.0.oncvpsp.upf
     MD5 check sum: be037bb81c227cfb9b1461a9f099f4bd
     Pseudo is Norm-conserving, Zval = 16.0
     Generated using ONCVPSP code by D. R. Hamann
     Using radial grid of 1458 points,  6 beta functions with:
                l(1) =   0
                l(2) =   0
                l(3) =   1
                l(4) =   1
                l(5) =   2
                l(6) =   2

     PseudoPot. # 3 for H  read from file:
     /gpfs/group/ixd4/default/Simon/pseudopotentials/materialscloud/SSSP_1.3.0_PBE_efficiency/H.pbe-rrkjus_psl.1.0.0.UPF
     MD5 check sum: f52b6d4d1c606e5624b1dc7b2218f220
     Pseudo is Ultrasoft, Zval =  1.0
     Generated using "atomic" code by A. Dal Corso  v.5.1
     Using radial grid of  929 points,  2 beta functions with:
                l(1) =   0
                l(2) =   0
     Q(r) pseudized with 0 coefficients

     atomic species   valence    mass     pseudopotential
        O              6.00    15.99940     O ( 1.00)
        Ru            16.00   101.07000     Ru( 1.00)
        H              1.00     1.00794     H ( 1.00)

      4 Sym. Ops. (no inversion) found

   Cartesian axes

     site n.     atom                  positions (alat units)
         1           O   tau(   1) = (  -0.0013108   0.4689304   0.8929262  )
         2           O   tau(   2) = (   0.4986908   0.4689304   0.8929258  )
         3           O   tau(   3) = (  -0.0032722   0.0000000   0.9829257  )
         4           O   tau(   4) = (   0.4967278   0.0000000   0.9829257  )
         5           Ru  tau(   5) = (   0.2478836   0.0000000   1.2286465  )
         6           Ru  tau(   6) = (   0.7478836   0.0000000   1.2286465  )
         7           O   tau(   7) = (   0.2489750   0.2917490   1.2108203  )
         8           O   tau(   8) = (   0.7489751   0.2917490   1.2108203  )
         9           Ru  tau(   9) = (  -0.0011868   0.4689304   1.2154677  )
        10           Ru  tau(  10) = (   0.4988131   0.4689304   1.2154677  )
        11           O   tau(  11) = (   0.2489750   0.6461119   1.2108203  )
        12           O   tau(  12) = (   0.7489751   0.6461119   1.2108203  )
        13           O   tau(  13) = (  -0.0014730   0.0000000   1.4078043  )
        14           O   tau(  14) = (   0.4985270   0.0000000   1.4078043  )
        15           O   tau(  15) = (  -0.0016238   0.4689304   1.5188278  )
        16           O   tau(  16) = (   0.4983762   0.4689304   1.5188278  )
        17           Ru  tau(  17) = (  -0.0007870   0.0000000   1.7076210  )
        18           Ru  tau(  18) = (   0.4992130   0.0000000   1.7076210  )
        19           O   tau(  19) = (   0.2495410   0.1767584   1.7076210  )
        20           O   tau(  20) = (   0.7495411   0.1767584   1.7076210  )
        21           Ru  tau(  21) = (   0.2490558   0.4689304   1.7076210  )
        22           Ru  tau(  22) = (   0.7490558   0.4689304   1.7076210  )
        23           O   tau(  23) = (   0.2495410   0.7611034   1.7076210  )
        24           O   tau(  24) = (   0.7495411   0.7611034   1.7076210  )
        25           O   tau(  25) = (  -0.0016238   0.4689304   1.8964109  )
        26           O   tau(  26) = (   0.4983762   0.4689304   1.8964109  )
        27           O   tau(  27) = (  -0.0014730   0.0000000   2.0074343  )
        28           O   tau(  28) = (   0.4985270   0.0000000   2.0074343  )
        29           Ru  tau(  29) = (   0.2478836   0.0000000   2.1865921  )
        30           Ru  tau(  30) = (   0.7478836   0.0000000   2.1865921  )
        31           O   tau(  31) = (   0.2489750   0.2917490   2.2044184  )
        32           O   tau(  32) = (   0.7489751   0.2917490   2.2044184  )
        33           Ru  tau(  33) = (  -0.0011868   0.4689304   2.1997709  )
        34           Ru  tau(  34) = (   0.4988131   0.4689304   2.1997709  )
        35           O   tau(  35) = (   0.2489750   0.6461119   2.2044184  )
        36           O   tau(  36) = (   0.7489751   0.6461119   2.2044184  )
        37           O   tau(  37) = (  -0.0032722   0.0000000   2.4323163  )
        38           O   tau(  38) = (   0.4967278   0.0000000   2.4323163  )
        39           O   tau(  39) = (  -0.0013108   0.4689304   2.5223124  )
        40           O   tau(  40) = (   0.4986908   0.4689304   2.5223128  )
        41           H   tau(  41) = (   0.1453930   0.4689304   0.8567459  )
        42           H   tau(  42) = (   0.1453930   0.4689304   2.5584893  )
        43           H   tau(  43) = (   0.6453916   0.4689304   0.8567463  )
        44           H   tau(  44) = (   0.6453916   0.4689304   2.5584889  )
        45           H   tau(  45) = (  -0.0067003   0.1270277   0.8977370  )
        46           H   tau(  46) = (  -0.0067003   0.1270277   2.5174982  )
        47           H   tau(  47) = (   0.4932997   0.1270277   0.8977370  )
        48           H   tau(  48) = (   0.4932997   0.1270277   2.5174982  )
        49           H   tau(  49) = (  -0.0067003   0.8108332   0.8977370  )
        50           H   tau(  50) = (  -0.0067003   0.8108332   2.5174982  )
        51           H   tau(  51) = (   0.4932997   0.8108332   0.8977370  )
        52           H   tau(  52) = (   0.4932997   0.8108332   2.5174982  )

     number of k points=     1  Marzari-Vanderbilt smearing, width (Ry)=  0.0300
                       cart. coord. in units 2pi/alat
        k(    1) = (   0.2500000   0.2665641   0.0000000), wk =   2.0000000

     Check: negative core charge=   -0.000001

     Initial potential from superposition of free atoms

     starting charge     371.9932, renormalised to     372.0000

     add environment contribution to local potential
     Polarization accuracy = 6.1E-12, # of iterations =  20

     negative rho (up, down):  2.421E-05 0.000E+00
     Starting wfcs are  244 randomized atomic wfcs
     Checking if some PAW data can be deallocated...

     Self-consistent Calculation

     iteration #  1     ecut=    50.00 Ry     beta= 0.70
     Davidson diagonalization with overlap
[...]
     atom   47 type  3   force =     0.05601209   -2.22971156   16.48757263
     atom   48 type  3   force =     0.05601209   -2.22971156  -16.48757263
     atom   49 type  3   force =     0.05601292    2.22971154   16.48757240
     atom   50 type  3   force =     0.05601292    2.22971154  -16.48757240
     atom   51 type  3   force =     0.05601209    2.22971156   16.48757263
     atom   52 type  3   force =     0.05601209    2.22971156  -16.48757263
     The core correction contribution to forces
     atom    1 type  1   force =    -0.01670398    0.00000000   -0.00294777
     atom    2 type  1   force =    -0.01670404    0.00000000   -0.00294776
     atom    3 type  1   force =     0.00053947   -0.00000000    0.01348266
     atom    4 type  1   force =     0.00053947    0.00000000    0.01348266
     atom    5 type  2   force =     0.00000000    0.00000000    0.00000000
     atom    6 type  2   force =     0.00000000    0.00000000    0.00000000
     atom    7 type  1   force =     0.00015434    0.00071851    0.00027305
     atom    8 type  1   force =     0.00015434    0.00071851    0.00027305
     atom    9 type  2   force =     0.00000000    0.00000000    0.00000000
     atom   10 type  2   force =     0.00000000    0.00000000    0.00000000
     atom   11 type  1   force =     0.00015434   -0.00071851    0.00027305
     atom   12 type  1   force =     0.00015434   -0.00071851    0.00027305
     atom   13 type  1   force =     0.00000502   -0.00000000    0.00250010
     atom   14 type  1   force =     0.00000501    0.00000000    0.00250010
     atom   15 type  1   force =     0.00001088   -0.00000000    0.00047795
     atom   16 type  1   force =     0.00001089   -0.00000000    0.00047795
     atom   17 type  2   force =     0.00000000    0.00000000    0.00000000
     atom   18 type  2   force =     0.00000000    0.00000000    0.00000000
     atom   19 type  1   force =    -0.00004446   -0.00013878   -0.00000199
     atom   20 type  1   force =    -0.00004446   -0.00013878   -0.00000199
     atom   21 type  2   force =     0.00000000    0.00000000    0.00000000
     atom   22 type  2   force =     0.00000000    0.00000000    0.00000000
     atom   23 type  1   force =    -0.00004446    0.00013823   -0.00000199
     atom   24 type  1   force =    -0.00004446    0.00013823   -0.00000199
     atom   25 type  1   force =     0.00001087    0.00000000   -0.00048035
     atom   26 type  1   force =     0.00001087   -0.00000000   -0.00048035
     atom   27 type  1   force =     0.00000502    0.00000000   -0.00250220
     atom   28 type  1   force =     0.00000502    0.00000000   -0.00250220
     atom   29 type  2   force =     0.00000000    0.00000000    0.00000000
     atom   30 type  2   force =     0.00000000    0.00000000    0.00000000
     atom   31 type  1   force =     0.00015434    0.00071870   -0.00027516
     atom   32 type  1   force =     0.00015434    0.00071870   -0.00027516
     atom   33 type  2   force =     0.00000000    0.00000000    0.00000000
     atom   34 type  2   force =     0.00000000    0.00000000    0.00000000
     atom   35 type  1   force =     0.00015434   -0.00071870   -0.00027516
     atom   36 type  1   force =     0.00015434   -0.00071870   -0.00027516
     atom   37 type  1   force =     0.00053955   -0.00000000   -0.01348684
     atom   38 type  1   force =     0.00053956   -0.00000000   -0.01348684
     atom   39 type  1   force =    -0.01670467    0.00000000    0.00294564
     atom   40 type  1   force =    -0.01670474    0.00000000    0.00294563
     atom   41 type  3   force =     0.00000000    0.00000000    0.00000000
     atom   42 type  3   force =     0.00000000    0.00000000    0.00000000
     atom   43 type  3   force =     0.00000000    0.00000000    0.00000000
     atom   44 type  3   force =     0.00000000    0.00000000    0.00000000
     atom   45 type  3   force =     0.00000000    0.00000000    0.00000000
     atom   46 type  3   force =     0.00000000    0.00000000    0.00000000
     atom   47 type  3   force =     0.00000000    0.00000000    0.00000000
     atom   48 type  3   force =     0.00000000    0.00000000    0.00000000
     atom   49 type  3   force =     0.00000000    0.00000000    0.00000000
     atom   50 type  3   force =     0.00000000    0.00000000    0.00000000
     atom   51 type  3   force =     0.00000000    0.00000000    0.00000000
     atom   52 type  3   force =     0.00000000    0.00000000    0.00000000
     The Hubbard contrib.    to forces
     atom    1 type  1   force =     0.00000000    0.00000000    0.00000000
     atom    2 type  1   force =     0.00000000    0.00000000    0.00000000
     atom    3 type  1   force =     0.00000000    0.00000000    0.00000000
     atom    4 type  1   force =     0.00000000    0.00000000    0.00000000
     atom    5 type  2   force =     0.00000000    0.00000000    0.00000000
     atom    6 type  2   force =     0.00000000    0.00000000    0.00000000
     atom    7 type  1   force =     0.00000000    0.00000000    0.00000000
     atom    8 type  1   force =     0.00000000    0.00000000    0.00000000
     atom    9 type  2   force =     0.00000000    0.00000000    0.00000000
     atom   10 type  2   force =     0.00000000    0.00000000    0.00000000
     atom   11 type  1   force =     0.00000000    0.00000000    0.00000000
     atom   12 type  1   force =     0.00000000    0.00000000    0.00000000
     atom   13 type  1   force =     0.00000000    0.00000000    0.00000000
     atom   14 type  1   force =     0.00000000    0.00000000    0.00000000
     atom   15 type  1   force =     0.00000000    0.00000000    0.00000000
     atom   16 type  1   force =     0.00000000    0.00000000    0.00000000
     atom   17 type  2   force =     0.00000000    0.00000000    0.00000000
     atom   18 type  2   force =     0.00000000    0.00000000    0.00000000
     atom   19 type  1   force =     0.00000000    0.00000000    0.00000000
     atom   20 type  1   force =     0.00000000    0.00000000    0.00000000
     atom   21 type  2   force =     0.00000000    0.00000000    0.00000000
     atom   22 type  2   force =     0.00000000    0.00000000    0.00000000
     atom   23 type  1   force =     0.00000000    0.00000000    0.00000000
     atom   24 type  1   force =     0.00000000    0.00000000    0.00000000
     atom   25 type  1   force =     0.00000000    0.00000000    0.00000000
     atom   26 type  1   force =     0.00000000    0.00000000    0.00000000
     atom   27 type  1   force =     0.00000000    0.00000000    0.00000000
     atom   28 type  1   force =     0.00000000    0.00000000    0.00000000
     atom   29 type  2   force =     0.00000000    0.00000000    0.00000000
     atom   30 type  2   force =     0.00000000    0.00000000    0.00000000
     atom   31 type  1   force =     0.00000000    0.00000000    0.00000000
     atom   32 type  1   force =     0.00000000    0.00000000    0.00000000
     atom   33 type  2   force =     0.00000000    0.00000000    0.00000000
     atom   34 type  2   force =     0.00000000    0.00000000    0.00000000
     atom   35 type  1   force =     0.00000000    0.00000000    0.00000000
     atom   36 type  1   force =     0.00000000    0.00000000    0.00000000
     atom   37 type  1   force =     0.00000000    0.00000000    0.00000000
     atom   38 type  1   force =     0.00000000    0.00000000    0.00000000
     atom   39 type  1   force =     0.00000000    0.00000000    0.00000000
     atom   40 type  1   force =     0.00000000    0.00000000    0.00000000
     atom   41 type  3   force =     0.00000000    0.00000000    0.00000000
     atom   42 type  3   force =     0.00000000    0.00000000    0.00000000
     atom   43 type  3   force =     0.00000000    0.00000000    0.00000000
     atom   44 type  3   force =     0.00000000    0.00000000    0.00000000
     atom   45 type  3   force =     0.00000000    0.00000000    0.00000000
     atom   46 type  3   force =     0.00000000    0.00000000    0.00000000
     atom   47 type  3   force =     0.00000000    0.00000000    0.00000000
     atom   48 type  3   force =     0.00000000    0.00000000    0.00000000
     atom   49 type  3   force =     0.00000000    0.00000000    0.00000000
     atom   50 type  3   force =     0.00000000    0.00000000    0.00000000
     atom   51 type  3   force =     0.00000000    0.00000000    0.00000000
     atom   52 type  3   force =     0.00000000    0.00000000    0.00000000
     The SCF correction term to forces
     atom    1 type  1   force =    -0.00000038    0.00000000    0.00000080
     atom    2 type  1   force =    -0.00000038    0.00000000    0.00000071
     atom    3 type  1   force =    -0.00000004   -0.00000000    0.00000002
     atom    4 type  1   force =    -0.00000018   -0.00000000    0.00000007
     atom    5 type  2   force =    -0.00000002    0.00000000   -0.00000174
     atom    6 type  2   force =    -0.00000046    0.00000000   -0.00000161
     atom    7 type  1   force =    -0.00000007   -0.00000032   -0.00000032
     atom    8 type  1   force =     0.00000008   -0.00000021   -0.00000024
     atom    9 type  2   force =    -0.00000006   -0.00000000    0.00000055
     atom   10 type  2   force =     0.00000005   -0.00000000    0.00000081
     atom   11 type  1   force =    -0.00000007    0.00000032   -0.00000032
     atom   12 type  1   force =     0.00000008    0.00000021   -0.00000024
     atom   13 type  1   force =     0.00000010    0.00000000   -0.00000161
     atom   14 type  1   force =     0.00000006    0.00000000   -0.00000070
     atom   15 type  1   force =    -0.00000029   -0.00000000   -0.00000014
     atom   16 type  1   force =     0.00000039   -0.00000000    0.00000015
     atom   17 type  2   force =    -0.00000011   -0.00000000    0.00000005
     atom   18 type  2   force =     0.00000028   -0.00000000    0.00000005
     atom   19 type  1   force =     0.00000095    0.00000048    0.00000002
     atom   20 type  1   force =    -0.00000074    0.00000091    0.00000002
     atom   21 type  2   force =     0.00000058   -0.00000000    0.00000004
     atom   22 type  2   force =    -0.00000053   -0.00000000    0.00000004
     atom   23 type  1   force =     0.00000095   -0.00000048    0.00000002
     atom   24 type  1   force =    -0.00000074   -0.00000091    0.00000002
     atom   25 type  1   force =    -0.00000029   -0.00000000    0.00000017
     atom   26 type  1   force =     0.00000039   -0.00000000   -0.00000013
     atom   27 type  1   force =     0.00000010    0.00000000    0.00000163
     atom   28 type  1   force =     0.00000006    0.00000000    0.00000071
     atom   29 type  2   force =    -0.00000002    0.00000000    0.00000175
     atom   30 type  2   force =    -0.00000046    0.00000000    0.00000162
     atom   31 type  1   force =    -0.00000007   -0.00000032    0.00000032
     atom   32 type  1   force =     0.00000008   -0.00000021    0.00000024
     atom   33 type  2   force =    -0.00000006   -0.00000000   -0.00000055
     atom   34 type  2   force =     0.00000005   -0.00000000   -0.00000081
     atom   35 type  1   force =    -0.00000007    0.00000032    0.00000032
     atom   36 type  1   force =     0.00000008    0.00000021    0.00000024
     atom   37 type  1   force =    -0.00000004    0.00000000   -0.00000003
     atom   38 type  1   force =    -0.00000018    0.00000000   -0.00000008
     atom   39 type  1   force =    -0.00000038   -0.00000000   -0.00000081
     atom   40 type  1   force =    -0.00000038   -0.00000000   -0.00000072
     atom   41 type  3   force =     0.00000005    0.00000000    0.00000007
     atom   42 type  3   force =     0.00000005   -0.00000000   -0.00000007
     atom   43 type  3   force =     0.00000007    0.00000000    0.00000006
     atom   44 type  3   force =     0.00000007   -0.00000000   -0.00000007
     atom   45 type  3   force =    -0.00000000   -0.00000015    0.00000009
     atom   46 type  3   force =    -0.00000000   -0.00000015   -0.00000009
     atom   47 type  3   force =    -0.00000001   -0.00000015    0.00000009
     atom   48 type  3   force =    -0.00000001   -0.00000015   -0.00000009
     atom   49 type  3   force =    -0.00000000    0.00000015    0.00000009
     atom   50 type  3   force =    -0.00000000    0.00000015   -0.00000009
     atom   51 type  3   force =    -0.00000001    0.00000015    0.00000009
     atom   52 type  3   force =    -0.00000001    0.00000015   -0.00000009

     Total force =     0.000429     Total SCF correction =     0.000006
     Energy error            =      6.7E-07 Ry
     Gradient error          =      9.2E-05 Ry/Bohr

     bfgs converged in  23 scf cycles and  22 bfgs steps
     (criteria: energy <  1.0E-04 Ry, force <  1.0E-04 Ry/Bohr)

     End of BFGS Geometry Optimization

     Final energy             =   -3442.5735093595 Ry

     File /storage/home/mgm6007/ixd4/Maria/Strain2_Files/RuO2-110-0-012345/RuO2-110-0-012345.bfgs deleted, as requested
Begin final coordinates

ATOMIC_POSITIONS (crystal)
O             0.0015575508        0.5000000000        0.2612883614
O             0.5015572623        0.5000000000        0.2612883810
O            -0.0039542435        0.0000000000        0.2880495460
O             0.4960457368        0.0000000000        0.2880495457
Ru            0.2468882339        0.0000000000        0.3596909594
Ru            0.7468882280        0.0000000000        0.3596909633
O             0.2493050535        0.3109467106        0.3542909233
O             0.7493050451        0.3109467112        0.3542909215
Ru           -0.0007763182        0.5000000000        0.3556650578
Ru            0.4992236884        0.5000000000        0.3556650620
O             0.2493050535        0.6890532894        0.3542909233
O             0.7493050451        0.6890532888        0.3542909215
O            -0.0027871644        0.0000000000        0.4121671054
O             0.4972128481        0.0000000000        0.4121670938
O            -0.0022287211        0.5000000000        0.4444885304
O             0.4977713172        0.5000000000        0.4444885328
Ru           -0.0029603901        0.0000000000        0.5000010000
Ru            0.4970396105        0.0000000000        0.5000010000
O             0.2469122317        0.1886070403        0.5000010000
O             0.7469122435        0.1886070562        0.5000010000
Ru            0.2480807529        0.5000000000        0.5000010000
Ru            0.7480807611        0.5000000000        0.5000010000
O             0.2469122317        0.8113939597        0.5000010000
O             0.7469122435        0.8113939438        0.5000010000
O            -0.0022287211        0.5000000000        0.5555124696
O             0.4977713172        0.5000000000        0.5555124672
O            -0.0027871644        0.0000000000        0.5878338946
O             0.4972128481        0.0000000000        0.5878339062
Ru            0.2468882339        0.0000000000        0.6403100406
Ru            0.7468882280        0.0000000000        0.6403100367
O             0.2493050535        0.3109467106        0.6457100767
O             0.7493050451        0.3109467112        0.6457100785
Ru           -0.0007763182        0.5000000000        0.6443359422
Ru            0.4992236884        0.5000000000        0.6443359380
O             0.2493050535        0.6890532894        0.6457100767
O             0.7493050451        0.6890532888        0.6457100785
O            -0.0039542435        0.0000000000        0.7119524540
O             0.4960457368        0.0000000000        0.7119524543
O             0.0015575508        0.5000000000        0.7387126386
O             0.5015572623        0.5000000000        0.7387126190
H             0.1486657712        0.5000000000        0.2513211240
H             0.1486657712        0.5000000000        0.7486788760
H             0.6486658554        0.5000000000        0.2513211132
H             0.6486658554        0.5000000000        0.7486788868
H            -0.0064062552        0.1358616646        0.2632883548
H            -0.0064062552        0.1358616646        0.7367116452
H             0.4935937129        0.1358616623        0.2632883537
H             0.4935937129        0.1358616623        0.7367116463
H            -0.0064062552        0.8641383354        0.2632883548
H            -0.0064062552        0.8641383354        0.7367116452
H             0.4935937129        0.8641383377        0.2632883537
H             0.4935937129        0.8641383377        0.7367116463
End final coordinates

     Writing all to output data dir /storage/home/mgm6007/ixd4/Maria/Strain2_Files/RuO2-110-0-012345/RuO2-110-0-012345.save/

     General routines

     Parallel routines

     Environ routines

   This run was terminated on:   0:45:21  25Jul2023

   JOB DONE.