     Program PWSCF v.7.2 starts on 18Jul2023 at 16:10:55
        Git branch: heads/qe-7.2
        Last git commit: b4c5e8deeb7d1863e7553a87b45f8d22c21926a5
        Last git commit date: Mon Mar 27 16:12:09 2023 +0000
        Last git commit subject: Merge branch 'merge_fix_hubbard' into 'develop'

     Reading input from RuO2-110-0-24.in

     Current dimensions of program PWSCF are:
     Max number of different atomic species (ntypx) = 10
     Max number of k-points (npk) =  40000
     Max angular momentum in pseudopotentials (lmaxx) =  4

     Reading input from environ.in:
     * Environ restarting
     * setting up water environment
     * using electronic solvent mode
     * setting boundary derivatives method to SCCS default

     File /storage/home/mgm6007/ixd4/Maria/Strain1_Files/RuO2-110-0-24/RuO2-110-0-24.update deleted, as requested
     file O.pbe-n-kjpaw_psl.0.1.UPF: wavefunction(s)  2P renormalized
     Message from routine setup:
     using ibrav=0 with symmetry is DISCOURAGED, use correct ibrav instead

     R & G space division:  proc/nbgrp/npool/nimage =      20
     Subspace diagonalization in iterative solution of the eigenvalue problem:
     one sub-group per band group will be used

     Using Slab Decomposition

     bravais-lattice index     =            0
     lattice parameter (alat)  =      12.3893  a.u.
     unit-cell volume          =    5808.5831 (a.u.)^3
     number of atoms/cell      =           44
     number of atomic types    =            3
     number of electrons       =       364.00
     number of Kohn-Sham states=          218
     kinetic-energy cutoff     =      50.0000  Ry
     charge density cutoff     =     500.0000  Ry
     scf convergence threshold =      1.0E-09
     mixing beta               =       0.7000
     number of iterations used =            8  local-TF  mixing
     energy convergence thresh.=      1.0E-04
     force convergence thresh. =      1.0E-04
     Exchange-correlation= PBE
                           (   1   4   3   4   0   0   0)
     nstep                     =          200

                                  Environ Setup Summary

          O. Andreussi, I. Dabo and N. Marzari, J. Chem. Phys. 136, 064102 (2012)

     in publications or presentations arising from this work.

     Parameters

     compensation onset threshold      =               0.1000E+00
     static permittivity               =                    78.30
     surface tension in input (dyn/cm) =                    47.90
     surface tension in internal units =               0.6153E-04
     external pressure in input (GPa)  =                    -0.36
     external pressure in inter. units =              -0.2447E-04

     Solvent Boundary

     solvent mode                      =               electronic
     derivatives method                =                    chain
     numerical core for derivatives    =                      fft
     switching function adopted        =                     SCCS
     density limit for vacuum region   =               0.5000E-02
     density limit for bulk solvent    =               0.1000E-03

     Electrostatic Setup

     electrostatic problem to solve    =              generalized
     numerical solver adopted          =                       cg
     type of auxiliary density adopted =                     none
     numerical core for poisson        =                      fft
     type of pbc corrections           =                parabolic
     numerical core for corrections    =                      1da

     celldm(1)=  12.389316  celldm(2)=   0.000000  celldm(3)=   0.000000
     celldm(4)=   0.000000  celldm(5)=   0.000000  celldm(6)=   0.000000

     crystal axes: (cart. coord. in units of alat)
               a(1) = (   1.000000   0.000000   0.000000 )
               a(2) = (   0.000000   0.904766   0.000000 )
               a(3) = (   0.000000   0.000000   3.375918 )

     reciprocal axes: (cart. coord. in units 2 pi/alat)
               b(1) = (  1.000000  0.000000  0.000000 )
               b(2) = (  0.000000  1.105258  0.000000 )
               b(3) = (  0.000000  0.000000  0.296216 )

     PseudoPot. # 1 for O  read from file:
     /gpfs/group/ixd4/default/Simon/pseudopotentials/materialscloud/SSSP_1.3.0_PBE_efficiency/O.pbe-n-kjpaw_psl.0.1.UPF
     MD5 check sum: 0234752ac141de4415c5fc33072bef88
     Pseudo is Projector augmented-wave + core cor, Zval =  6.0
     Generated using "atomic" code by A. Dal Corso  v.5.0.99 svn rev. 10869
     Shape of augmentation charge: BESSEL
     Using radial grid of 1095 points,  4 beta functions with:
                l(1) =   0
                l(2) =   0
                l(3) =   1
                l(4) =   1
     Q(r) pseudized with 0 coefficients

     PseudoPot. # 2 for Ru read from file:
     /gpfs/group/ixd4/default/Simon/pseudopotentials/materialscloud/SSSP_1.3.0_PBE_efficiency/Ru_ONCV_PBE-1.0.oncvpsp.upf
     MD5 check sum: be037bb81c227cfb9b1461a9f099f4bd
     Pseudo is Norm-conserving, Zval = 16.0
     Generated using ONCVPSP code by D. R. Hamann
     Using radial grid of 1458 points,  6 beta functions with:
                l(1) =   0
                l(2) =   0
                l(3) =   1
                l(4) =   1
                l(5) =   2
                l(6) =   2

     PseudoPot. # 3 for H  read from file:
     /gpfs/group/ixd4/default/Simon/pseudopotentials/materialscloud/SSSP_1.3.0_PBE_efficiency/H.pbe-rrkjus_psl.1.0.0.UPF
     MD5 check sum: f52b6d4d1c606e5624b1dc7b2218f220
     Pseudo is Ultrasoft, Zval =  1.0
     Generated using "atomic" code by A. Dal Corso  v.5.1
     Using radial grid of  929 points,  2 beta functions with:
                l(1) =   0
                l(2) =   0
     Q(r) pseudized with 0 coefficients

     atomic species   valence    mass     pseudopotential
        O              6.00    15.99940     O ( 1.00)
        Ru            16.00   101.07000     Ru( 1.00)
        H              1.00     1.00794     H ( 1.00)

      8 Sym. Ops., with inversion, found

   Cartesian axes

     site n.     atom                  positions (alat units)
         1           O   tau(   1) = (   0.0000000   0.4523832   0.9264849  )
         2           O   tau(   2) = (   0.5000000   0.4523832   0.9225308  )
         3           O   tau(   3) = (   0.0000000   0.0000000   0.9818693  )
         4           O   tau(   4) = (   0.5000000   0.0000000   1.0366867  )
         5           Ru  tau(   5) = (   0.2637543   0.0000000   1.2095574  )
         6           Ru  tau(   6) = (   0.7362457   0.0000000   1.2095574  )
         7           O   tau(   7) = (   0.2497652   0.2827887   1.2121970  )
         8           O   tau(   8) = (   0.7502348   0.2827887   1.2121970  )
         9           Ru  tau(   9) = (   0.0000000   0.4523832   1.1962220  )
        10           Ru  tau(  10) = (   0.5000000   0.4523832   1.1859902  )
        11           O   tau(  11) = (   0.2497652   0.6219777   1.2121970  )
        12           O   tau(  12) = (   0.7502348   0.6219777   1.2121970  )
        13           O   tau(  13) = (   0.0000000   0.0000000   1.3872724  )
        14           O   tau(  14) = (   0.5000000   0.0000000   1.3912975  )
        15           O   tau(  15) = (   0.0000000   0.4523832   1.5037714  )
        16           O   tau(  16) = (   0.5000000   0.4523832   1.5019568  )
        17           Ru  tau(  17) = (   0.0000000   0.0000000   1.6879622  )
        18           Ru  tau(  18) = (   0.5000000   0.0000000   1.6879622  )
        19           O   tau(  19) = (   0.2491165   0.1683924   1.6879622  )
        20           O   tau(  20) = (   0.7508835   0.1683924   1.6879622  )
        21           Ru  tau(  21) = (   0.2515136   0.4523832   1.6879622  )
        22           Ru  tau(  22) = (   0.7484864   0.4523832   1.6879622  )
        23           O   tau(  23) = (   0.2491165   0.7363748   1.6879622  )
        24           O   tau(  24) = (   0.7508835   0.7363748   1.6879622  )
        25           O   tau(  25) = (   0.0000000   0.4523832   1.8721495  )
        26           O   tau(  26) = (   0.5000000   0.4523832   1.8739642  )
        27           O   tau(  27) = (   0.0000000   0.0000000   1.9886485  )
        28           O   tau(  28) = (   0.5000000   0.0000000   1.9846234  )
        29           Ru  tau(  29) = (   0.2637543   0.0000000   2.1663635  )
        30           Ru  tau(  30) = (   0.7362457   0.0000000   2.1663635  )
        31           O   tau(  31) = (   0.2497652   0.2827887   2.1637239  )
        32           O   tau(  32) = (   0.7502348   0.2827887   2.1637239  )
        33           Ru  tau(  33) = (   0.0000000   0.4523832   2.1796989  )
        34           Ru  tau(  34) = (   0.5000000   0.4523832   2.1899307  )
        35           O   tau(  35) = (   0.2497652   0.6219777   2.1637239  )
        36           O   tau(  36) = (   0.7502348   0.6219777   2.1637239  )
        37           O   tau(  37) = (   0.0000000   0.0000000   2.3940551  )
        38           O   tau(  38) = (   0.5000000   0.0000000   2.3392377  )
        39           O   tau(  39) = (   0.0000000   0.4523832   2.4494360  )
        40           O   tau(  40) = (   0.5000000   0.4523832   2.4533901  )
        41           H   tau(  41) = (   0.0000000   0.1202211   0.8905962  )
        42           H   tau(  42) = (   0.0000000   0.1202211   2.4853213  )
        43           H   tau(  43) = (   0.0000000   0.7845452   0.8905962  )
        44           H   tau(  44) = (   0.0000000   0.7845452   2.4853213  )

     number of k points=     1  Marzari-Vanderbilt smearing, width (Ry)=  0.0300
                       cart. coord. in units 2pi/alat
        k(    1) = (   0.2500000   0.2763144   0.0000000), wk =   2.0000000

     Check: negative core charge=   -0.000001

     Initial potential from superposition of free atoms

     starting charge     363.9933, renormalised to     364.0000

     add environment contribution to local potential
     Polarization accuracy = 1.0E-12, # of iterations =  23

     negative rho (up, down):  3.682E-05 0.000E+00
     Starting wfcs are  236 randomized atomic wfcs
     Checking if some PAW data can be deallocated...

     Self-consistent Calculation

     iteration #  1     ecut=    50.00 Ry     beta= 0.70
     Davidson diagonalization with overlap
     ethr =  1.00E-02,  avg # of iterations =  2.0

     total energy              =   -3429.90336703 Ry
     estimated scf accuracy    <      10.46217896 Ry
     electrostatic embedding   =      -0.00161243 Ry
     cavitation energy         =       0.01933543 Ry
     PV energy                 =      -0.08258811 Ry
     correction to one-el term =     218.78663163 Ry

[...]

     negative rho (up, down):  1.985E-05 0.000E+00

[...]

     add environment contribution to local potential
     Polarization accuracy = 4.0E-12, # of iterations =  40

     total energy              =   -3432.49229781 Ry
     estimated scf accuracy    <          1.2E-09 Ry
     electrostatic embedding   =      -0.09104221 Ry
     cavitation energy         =       0.02069539 Ry
     PV energy                 =      -0.07961755 Ry
     correction to one-el term =     188.85956666 Ry

[...]
     atom    8 type  1   force =    -0.89211548    0.46608406   62.95198147
     atom    9 type  2   force =    -0.00000000    0.00000000  171.96259826
     atom   10 type  2   force =    -0.00000000    0.00000000  175.48792443
     atom   11 type  1   force =     0.89211548   -0.46608406   62.95198147
     atom   12 type  1   force =    -0.89211548   -0.46608406   62.95198147
     atom   13 type  1   force =    -0.00000000    0.00000000   40.71136987
     atom   14 type  1   force =     0.00000000    0.00000000   37.25835952
     atom   15 type  1   force =    -0.00000000    0.00000000   26.35150830
     atom   16 type  1   force =     0.00000000    0.00000000   27.11566353
     atom   17 type  2   force =    -0.00000000   -0.00000000   -0.00591589
     atom   18 type  2   force =     0.00000000   -0.00000000   -0.00582759
     atom   19 type  1   force =     0.30102743   -0.72124571   -0.00247333
     atom   20 type  1   force =    -0.30102743   -0.72124571   -0.00247333
     atom   21 type  2   force =     0.48564416    0.00000000   -0.00607638
     atom   22 type  2   force =    -0.48564416    0.00000000   -0.00607638
     atom   23 type  1   force =     0.30102651    0.72089911   -0.00247333
     atom   24 type  1   force =    -0.30102651    0.72089911   -0.00247333
     atom   25 type  1   force =     0.00000000    0.00000000  -26.35330051
     atom   26 type  1   force =     0.00000000    0.00000000  -27.11746973
     atom   27 type  1   force =     0.00000000   -0.00000000  -40.71319215
     atom   28 type  1   force =     0.00000000   -0.00000000  -37.26010206
     atom   29 type  2   force =     6.83053920    0.00000000 -173.06217659
     atom   30 type  2   force =    -6.83053920   -0.00000000 -173.06217659
     atom   31 type  1   force =     0.89212471    0.46611401  -62.95444183
     atom   32 type  1   force =    -0.89212471    0.46611401  -62.95444183
     atom   33 type  2   force =    -0.00000000    0.00000000 -171.96836573
     atom   34 type  2   force =     0.00000000    0.00000000 -175.49372539
     atom   35 type  1   force =     0.89212471   -0.46611401  -62.95444183
     atom   36 type  1   force =    -0.89212471   -0.46611401  -62.95444183
     atom   37 type  1   force =    -0.00000000   -0.00000000  -91.07087525
     atom   38 type  1   force =     0.00000000   -0.00000000  -94.90759621
     atom   39 type  1   force =    -0.00000000    0.00000000  -99.46559336
     atom   40 type  1   force =     0.00000000    0.00000000 -100.75304595
     atom   41 type  3   force =    -0.00000000   -2.16056885   17.12513446
     atom   42 type  3   force =     0.00000000   -2.16056885  -17.12513446
     atom   43 type  3   force =    -0.00000000    2.16056885   17.12513446
     atom   44 type  3   force =     0.00000000    2.16056885  -17.12513446
     The core correction contribution to forces
     atom    1 type  1   force =    -0.00000000    0.00000000   -0.01055827
     atom    2 type  1   force =    -0.00000000   -0.00000000   -0.01069949
     atom    3 type  1   force =     0.00000000    0.00000000    0.01373018
     atom    4 type  1   force =    -0.00000000   -0.00000000   -0.01221144
     atom    5 type  2   force =     0.00000000    0.00000000    0.00000000
     atom    6 type  2   force =     0.00000000    0.00000000    0.00000000
     atom    7 type  1   force =    -0.00028365   -0.00003503    0.00134913
     atom    8 type  1   force =     0.00028365   -0.00003503    0.00134913
     atom    9 type  2   force =     0.00000000    0.00000000    0.00000000
     atom   10 type  2   force =     0.00000000    0.00000000    0.00000000
     atom   11 type  1   force =    -0.00028365    0.00003503    0.00134913
     atom   12 type  1   force =     0.00028365    0.00003503    0.00134913
     atom   13 type  1   force =     0.00000000    0.00000000   -0.00154319
     atom   14 type  1   force =    -0.00000000    0.00000000    0.00243531
     atom   15 type  1   force =    -0.00000000    0.00000000   -0.00157030
     atom   16 type  1   force =     0.00000000   -0.00000000   -0.00246940
     atom   17 type  2   force =     0.00000000    0.00000000    0.00000000
     atom   18 type  2   force =     0.00000000    0.00000000    0.00000000
     atom   19 type  1   force =    -0.00019280   -0.00036063   -0.00000207
     atom   20 type  1   force =     0.00019280   -0.00036063   -0.00000207
     atom   21 type  2   force =     0.00000000    0.00000000    0.00000000
     atom   22 type  2   force =     0.00000000    0.00000000    0.00000000
     atom   23 type  1   force =    -0.00019280    0.00036013   -0.00000207
     atom   24 type  1   force =     0.00019280    0.00036013   -0.00000207
     atom   25 type  1   force =    -0.00000000    0.00000000    0.00156824
     atom   26 type  1   force =     0.00000000    0.00000000    0.00246731
     atom   27 type  1   force =    -0.00000000    0.00000000    0.00154092
     atom   28 type  1   force =     0.00000000    0.00000000   -0.00243762
     atom   29 type  2   force =     0.00000000    0.00000000    0.00000000
     atom   30 type  2   force =     0.00000000    0.00000000    0.00000000
     atom   31 type  1   force =    -0.00028357   -0.00003498   -0.00135071
     atom   32 type  1   force =     0.00028357   -0.00003498   -0.00135071
     atom   33 type  2   force =     0.00000000    0.00000000    0.00000000
     atom   34 type  2   force =     0.00000000    0.00000000    0.00000000
     atom   35 type  1   force =    -0.00028357    0.00003498   -0.00135071
     atom   36 type  1   force =     0.00028357    0.00003498   -0.00135071
     atom   37 type  1   force =     0.00000000    0.00000000   -0.01373386
     atom   38 type  1   force =    -0.00000000    0.00000000    0.01220768
     atom   39 type  1   force =    -0.00000000   -0.00000000    0.01055625
     atom   40 type  1   force =    -0.00000000    0.00000000    0.01069765
     atom   41 type  3   force =     0.00000000    0.00000000    0.00000000
     atom   42 type  3   force =     0.00000000    0.00000000    0.00000000
     atom   43 type  3   force =     0.00000000    0.00000000    0.00000000
     atom   44 type  3   force =     0.00000000    0.00000000    0.00000000
     The Hubbard contrib.    to forces
     atom    1 type  1   force =     0.00000000    0.00000000    0.00000000
     atom    2 type  1   force =     0.00000000    0.00000000    0.00000000
     atom    3 type  1   force =     0.00000000    0.00000000    0.00000000
     atom    4 type  1   force =     0.00000000    0.00000000    0.00000000
     atom    5 type  2   force =     0.00000000    0.00000000    0.00000000
     atom    6 type  2   force =     0.00000000    0.00000000    0.00000000
     atom    7 type  1   force =     0.00000000    0.00000000    0.00000000
     atom    8 type  1   force =     0.00000000    0.00000000    0.00000000
     atom    9 type  2   force =     0.00000000    0.00000000    0.00000000
     atom   10 type  2   force =     0.00000000    0.00000000    0.00000000
     atom   11 type  1   force =     0.00000000    0.00000000    0.00000000
     atom   12 type  1   force =     0.00000000    0.00000000    0.00000000
     atom   13 type  1   force =     0.00000000    0.00000000    0.00000000
     atom   14 type  1   force =     0.00000000    0.00000000    0.00000000
     atom   15 type  1   force =     0.00000000    0.00000000    0.00000000
     atom   16 type  1   force =     0.00000000    0.00000000    0.00000000
     atom   17 type  2   force =     0.00000000    0.00000000    0.00000000
     atom   18 type  2   force =     0.00000000    0.00000000    0.00000000
     atom   19 type  1   force =     0.00000000    0.00000000    0.00000000
     atom   20 type  1   force =     0.00000000    0.00000000    0.00000000
     atom   21 type  2   force =     0.00000000    0.00000000    0.00000000
     atom   22 type  2   force =     0.00000000    0.00000000    0.00000000
     atom   23 type  1   force =     0.00000000    0.00000000    0.00000000
     atom   24 type  1   force =     0.00000000    0.00000000    0.00000000
     atom   25 type  1   force =     0.00000000    0.00000000    0.00000000
     atom   26 type  1   force =     0.00000000    0.00000000    0.00000000
     atom   27 type  1   force =     0.00000000    0.00000000    0.00000000
     atom   28 type  1   force =     0.00000000    0.00000000    0.00000000
     atom   29 type  2   force =     0.00000000    0.00000000    0.00000000
     atom   30 type  2   force =     0.00000000    0.00000000    0.00000000
     atom   31 type  1   force =     0.00000000    0.00000000    0.00000000
     atom   32 type  1   force =     0.00000000    0.00000000    0.00000000
     atom   33 type  2   force =     0.00000000    0.00000000    0.00000000
     atom   34 type  2   force =     0.00000000    0.00000000    0.00000000
     atom   35 type  1   force =     0.00000000    0.00000000    0.00000000
     atom   36 type  1   force =     0.00000000    0.00000000    0.00000000
     atom   37 type  1   force =     0.00000000    0.00000000    0.00000000
     atom   38 type  1   force =     0.00000000    0.00000000    0.00000000
     atom   39 type  1   force =     0.00000000    0.00000000    0.00000000
     atom   40 type  1   force =     0.00000000    0.00000000    0.00000000
     atom   41 type  3   force =     0.00000000    0.00000000    0.00000000
     atom   42 type  3   force =     0.00000000    0.00000000    0.00000000
     atom   43 type  3   force =     0.00000000    0.00000000    0.00000000
     atom   44 type  3   force =     0.00000000    0.00000000    0.00000000
     The SCF correction term to forces
     atom    1 type  1   force =     0.00000000   -0.00000001    0.00000431
     atom    2 type  1   force =    -0.00000000   -0.00000001   -0.00000138
     atom    3 type  1   force =     0.00000000    0.00000002    0.00001656
     atom    4 type  1   force =    -0.00000000    0.00000002   -0.00000142
     atom    5 type  2   force =     0.00000214    0.00000009   -0.00000922
     atom    6 type  2   force =    -0.00000214    0.00000009   -0.00000922
     atom    7 type  1   force =    -0.00000330    0.00000203   -0.00000455
     atom    8 type  1   force =     0.00000330    0.00000203   -0.00000455
     atom    9 type  2   force =     0.00000000   -0.00000008   -0.00001460
     atom   10 type  2   force =    -0.00000000   -0.00000008   -0.00000484
     atom   11 type  1   force =    -0.00000330   -0.00000205   -0.00000457
     atom   12 type  1   force =     0.00000330   -0.00000205   -0.00000457
     atom   13 type  1   force =     0.00000000    0.00000004   -0.00000518
     atom   14 type  1   force =    -0.00000000    0.00000004   -0.00000491
     atom   15 type  1   force =     0.00000000   -0.00000005   -0.00000267
     atom   16 type  1   force =    -0.00000000   -0.00000005    0.00000142
     atom   17 type  2   force =    -0.00000000    0.00000016    0.00000376
     atom   18 type  2   force =     0.00000000    0.00000016    0.00000389
     atom   19 type  1   force =     0.00000089    0.00000338    0.00000133
     atom   20 type  1   force =    -0.00000089    0.00000338    0.00000133
     atom   21 type  2   force =     0.00000074   -0.00000016    0.00000362
     atom   22 type  2   force =    -0.00000074   -0.00000016    0.00000362
     atom   23 type  1   force =     0.00000089   -0.00000333    0.00000133
     atom   24 type  1   force =    -0.00000089   -0.00000333    0.00000133
     atom   25 type  1   force =    -0.00000000   -0.00000005    0.00000340
     atom   26 type  1   force =     0.00000000   -0.00000005   -0.00000061
     atom   27 type  1   force =    -0.00000000    0.00000004    0.00000384
     atom   28 type  1   force =     0.00000000    0.00000004    0.00000372
     atom   29 type  2   force =     0.00000234    0.00000009   -0.00000132
     atom   30 type  2   force =    -0.00000234    0.00000009   -0.00000132
     atom   31 type  1   force =    -0.00000315    0.00000174    0.00000069
     atom   32 type  1   force =     0.00000315    0.00000174    0.00000069
     atom   33 type  2   force =    -0.00000000   -0.00000008    0.00000337
     atom   34 type  2   force =     0.00000000   -0.00000008   -0.00000631
     atom   35 type  1   force =    -0.00000315   -0.00000177    0.00000071
     atom   36 type  1   force =     0.00000315   -0.00000177    0.00000071
     atom   37 type  1   force =    -0.00000000    0.00000002   -0.00001925
     atom   38 type  1   force =     0.00000000    0.00000002   -0.00000186
     atom   39 type  1   force =    -0.00000000   -0.00000001   -0.00000584
     atom   40 type  1   force =     0.00000000   -0.00000001   -0.00000018
     atom   41 type  3   force =     0.00000000    0.00000174    0.00000089
     atom   42 type  3   force =    -0.00000000    0.00000178   -0.00000102
     atom   43 type  3   force =     0.00000000   -0.00000174    0.00000089
     atom   44 type  3   force =    -0.00000000   -0.00000178   -0.00000101

     Total force =     0.000158     Total SCF correction =     0.000040
     SCF correction compared to forces is large: reduce conv_thr to get better values

     BFGS Geometry Optimization
     Energy error            =      0.0E+00 Ry
     Gradient error          =      5.9E-05 Ry/Bohr

     bfgs converged in   1 scf cycles and   0 bfgs steps
     (criteria: energy <  1.0E-04 Ry, force <  1.0E-04 Ry/Bohr)

     End of BFGS Geometry Optimization

     Final energy             =   -3432.4922979508 Ry
Begin final coordinates

ATOMIC_POSITIONS (crystal)
O             0.0000000000        0.5000000000        0.2744394315
O             0.5000000000        0.5000000000        0.2732681801
O             0.0000000000        0.0000000000        0.2908451508
O             0.5000000000        0.0000000000        0.3070829286
Ru            0.2637542998        0.0000000000        0.3582899717
Ru            0.7362457002        0.0000000000        0.3582899717
O             0.2497651714        0.3125543702        0.3590718581
O             0.7502348286        0.3125543702        0.3590718581
Ru            0.0000000000        0.5000000000        0.3543398279
Ru            0.5000000000        0.5000000000        0.3513089940
O             0.2497651714        0.6874456298        0.3590718581
O             0.7502348286        0.6874456298        0.3590718581
O             0.0000000000        0.0000000000        0.4109319572
O             0.5000000000        0.0000000000        0.4121242630
O             0.0000000000        0.5000000000        0.4454408031
O             0.5000000000        0.5000000000        0.4449032718
Ru            0.0000000000        0.0000000000        0.5000010000
Ru            0.5000000000        0.0000000000        0.5000010000
O             0.2491164679        0.1861170213        0.5000010000
O             0.7508835321        0.1861170213        0.5000010000
Ru            0.2515135705        0.5000000000        0.5000010000
Ru            0.7484864295        0.5000000000        0.5000010000
O             0.2491164679        0.8138839787        0.5000010000
O             0.7508835321        0.8138839787        0.5000010000
O             0.0000000000        0.5000000000        0.5545601969
O             0.5000000000        0.5000000000        0.5550977282
O             0.0000000000        0.0000000000        0.5890690428
O             0.5000000000        0.0000000000        0.5878767370
Ru            0.2637542998        0.0000000000        0.6417110283
Ru            0.7362457002        0.0000000000        0.6417110283
O             0.2497651714        0.3125543702        0.6409291419
O             0.7502348286        0.3125543702        0.6409291419
Ru            0.0000000000        0.5000000000        0.6456611721
Ru            0.5000000000        0.5000000000        0.6486920060
O             0.2497651714        0.6874456298        0.6409291419
O             0.7502348286        0.6874456298        0.6409291419
O             0.0000000000        0.0000000000        0.7091568492
O             0.5000000000        0.0000000000        0.6929190714
O             0.0000000000        0.5000000000        0.7255615685
O             0.5000000000        0.5000000000        0.7267328199
H             0.0000000000        0.1328752794        0.2638086484
H             0.0000000000        0.1328752794        0.7361913516
H             0.0000000000        0.8671247206        0.2638086484
H             0.0000000000        0.8671247206        0.7361913516
End final coordinates

     Writing all to output data dir /storage/home/mgm6007/ixd4/Maria/Strain1_Files/RuO2-110-0-24/RuO2-110-0-24.save/

     General routines

     Parallel routines

     Environ routines

   This run was terminated on:  20:52:56  18Jul2023

   JOB DONE.