     Program PWSCF v.7.2 starts on 21Jul2023 at 17: 1:44
        Git branch: heads/qe-7.2
        Last git commit: b4c5e8deeb7d1863e7553a87b45f8d22c21926a5
        Last git commit date: Mon Mar 27 16:12:09 2023 +0000
        Last git commit subject: Merge branch 'merge_fix_hubbard' into 'develop'

     Reading input from RuO2-110-0-2.in

     Current dimensions of program PWSCF are:
     Max number of different atomic species (ntypx) = 10
     Max number of k-points (npk) =  40000
     Max angular momentum in pseudopotentials (lmaxx) =  4

     Reading input from environ.in:
     * Environ restarting
     * setting up water environment
     * using electronic solvent mode
     * setting boundary derivatives method to SCCS default

     File /storage/home/mgm6007/ixd4/Maria/Strain2_Files/RuO2-110-0-2/RuO2-110-0-2.update deleted, as requested

     File /storage/home/mgm6007/ixd4/Maria/Strain2_Files/RuO2-110-0-2/RuO2-110-0-2.bfgs deleted, as requested
     file O.pbe-n-kjpaw_psl.0.1.UPF: wavefunction(s)  2P renormalized
     Message from routine setup:
     using ibrav=0 with symmetry is DISCOURAGED, use correct ibrav instead

     R & G space division:  proc/nbgrp/npool/nimage =      20
     Subspace diagonalization in iterative solution of the eigenvalue problem:
     one sub-group per band group will be used

     Using Slab Decomposition

     bravais-lattice index     =            0
     lattice parameter (alat)  =      12.2467  a.u.
     unit-cell volume          =    5883.2137 (a.u.)^3
     number of atoms/cell      =           42
     number of atomic types    =            3
     number of electrons       =       362.00
     number of Kohn-Sham states=          217
     kinetic-energy cutoff     =      50.0000  Ry
     charge density cutoff     =     500.0000  Ry
     scf convergence threshold =      1.0E-09
     mixing beta               =       0.7000
     number of iterations used =            8  local-TF  mixing
     energy convergence thresh.=      1.0E-04
     force convergence thresh. =      1.0E-04
     Exchange-correlation= PBE
                           (   1   4   3   4   0   0   0)
     nstep                     =          200

                                  Environ Setup Summary

          O. Andreussi, I. Dabo and N. Marzari, J. Chem. Phys. 136, 064102 (2012)

     in publications or presentations arising from this work.

     Parameters

     compensation onset threshold      =               0.1000E+00
     static permittivity               =                    78.30
     surface tension in input (dyn/cm) =                    47.90
     surface tension in internal units =               0.6153E-04
     external pressure in input (GPa)  =                    -0.36
     external pressure in inter. units =              -0.2447E-04

     Solvent Boundary

     solvent mode                      =               electronic
     derivatives method                =                    chain
     numerical core for derivatives    =                      fft
     switching function adopted        =                     SCCS
     density limit for vacuum region   =               0.5000E-02
     density limit for bulk solvent    =               0.1000E-03

     Electrostatic Setup

     electrostatic problem to solve    =              generalized
     numerical solver adopted          =                       cg
     type of auxiliary density adopted =                     none
     numerical core for poisson        =                      fft
     type of pbc corrections           =                parabolic
     numerical core for corrections    =                      1da

     celldm(1)=  12.246684  celldm(2)=   0.000000  celldm(3)=   0.000000
     celldm(4)=   0.000000  celldm(5)=   0.000000  celldm(6)=   0.000000

     crystal axes: (cart. coord. in units of alat)
               a(1) = (   1.000000   0.000000   0.000000 )
               a(2) = (   0.000000   0.937861   0.000000 )
               a(3) = (   0.000000   0.000000   3.415235 )

     reciprocal axes: (cart. coord. in units 2 pi/alat)
               b(1) = (  1.000000  0.000000  0.000000 )
               b(2) = (  0.000000  1.066256  0.000000 )
               b(3) = (  0.000000  0.000000  0.292806 )

     PseudoPot. # 1 for O  read from file:
     /gpfs/group/ixd4/default/Simon/pseudopotentials/materialscloud/SSSP_1.3.0_PBE_efficiency/O.pbe-n-kjpaw_psl.0.1.UPF
     MD5 check sum: 0234752ac141de4415c5fc33072bef88
     Pseudo is Projector augmented-wave + core cor, Zval =  6.0
     Generated using "atomic" code by A. Dal Corso  v.5.0.99 svn rev. 10869
     Shape of augmentation charge: BESSEL
     Using radial grid of 1095 points,  4 beta functions with:
                l(1) =   0
                l(2) =   0
                l(3) =   1
                l(4) =   1
     Q(r) pseudized with 0 coefficients

     PseudoPot. # 2 for Ru read from file:
     /gpfs/group/ixd4/default/Simon/pseudopotentials/materialscloud/SSSP_1.3.0_PBE_efficiency/Ru_ONCV_PBE-1.0.oncvpsp.upf
     MD5 check sum: be037bb81c227cfb9b1461a9f099f4bd
     Pseudo is Norm-conserving, Zval = 16.0
     Generated using ONCVPSP code by D. R. Hamann
     Using radial grid of 1458 points,  6 beta functions with:
                l(1) =   0
                l(2) =   0
                l(3) =   1
                l(4) =   1
                l(5) =   2
                l(6) =   2

     PseudoPot. # 3 for H  read from file:
     /gpfs/group/ixd4/default/Simon/pseudopotentials/materialscloud/SSSP_1.3.0_PBE_efficiency/H.pbe-rrkjus_psl.1.0.0.UPF
     MD5 check sum: f52b6d4d1c606e5624b1dc7b2218f220
     Pseudo is Ultrasoft, Zval =  1.0
     Generated using "atomic" code by A. Dal Corso  v.5.1
     Using radial grid of  929 points,  2 beta functions with:
                l(1) =   0
                l(2) =   0
     Q(r) pseudized with 0 coefficients

     atomic species   valence    mass     pseudopotential
        O              6.00    15.99940     O ( 1.00)
        Ru            16.00   101.07000     Ru( 1.00)
        H              1.00     1.00794     H ( 1.00)

      4 Sym. Ops. (no inversion) found

   Cartesian axes

     site n.     atom                  positions (alat units)
         1           O   tau(   1) = (   0.0000000   0.4723954   0.9394915  )
         2           O   tau(   2) = (   0.5000000   0.4699129   0.9381568  )
         3           O   tau(   3) = (   0.0000000   0.0017625   1.0309737  )
         4           O   tau(   4) = (   0.5000000   0.0016494   1.0523743  )
         5           Ru  tau(   5) = (   0.2564838   0.0035110   1.2193834  )
         6           Ru  tau(   6) = (   0.7435162   0.0035110   1.2193834  )
         7           O   tau(   7) = (   0.2492279   0.2949168   1.2292519  )
         8           O   tau(   8) = (   0.7507721   0.2949168   1.2292519  )
         9           Ru  tau(   9) = (   0.0000000   0.4727158   1.2045163  )
        10           Ru  tau(  10) = (   0.5000000   0.4720496   1.2025257  )
        11           O   tau(  11) = (   0.2502462   0.6494024   1.2297498  )
        12           O   tau(  12) = (   0.7497538   0.6494024   1.2297498  )
        13           O   tau(  13) = (   0.0000000   0.0017882   1.4085523  )
        14           O   tau(  14) = (   0.5000000   0.0021641   1.4064339  )
        15           O   tau(  15) = (   0.0000000   0.4706765   1.5204227  )
        16           O   tau(  16) = (   0.5000000   0.4697500   1.5203154  )
        17           Ru  tau(  17) = (   0.0000000   0.0002986   1.7076210  )
        18           Ru  tau(  18) = (   0.5000000   0.0014840   1.7076210  )
        19           O   tau(  19) = (   0.2492755   0.1772862   1.7076210  )
        20           O   tau(  20) = (   0.7507245   0.1772862   1.7076210  )
        21           Ru  tau(  21) = (   0.2505057   0.4696504   1.7076210  )
        22           Ru  tau(  22) = (   0.7494943   0.4696504   1.7076210  )
        23           O   tau(  23) = (   0.2502135   0.7622084   1.7076210  )
        24           O   tau(  24) = (   0.7497865   0.7622084   1.7076210  )
        25           O   tau(  25) = (   0.0000000   0.4706765   1.8948160  )
        26           O   tau(  26) = (   0.5000000   0.4697500   1.8949233  )
        27           O   tau(  27) = (   0.0000000   0.0017882   2.0066863  )
        28           O   tau(  28) = (   0.5000000   0.0021641   2.0088048  )
        29           Ru  tau(  29) = (   0.2564838   0.0035110   2.1958553  )
        30           Ru  tau(  30) = (   0.7435162   0.0035110   2.1958553  )
        31           O   tau(  31) = (   0.2492279   0.2949168   2.1859867  )
        32           O   tau(  32) = (   0.7507721   0.2949168   2.1859867  )
        33           Ru  tau(  33) = (   0.0000000   0.4727158   2.2107223  )
        34           Ru  tau(  34) = (   0.5000000   0.4720496   2.2127130  )
        35           O   tau(  35) = (   0.2502462   0.6494024   2.1854888  )
        36           O   tau(  36) = (   0.7497538   0.6494024   2.1854888  )
        37           O   tau(  37) = (   0.0000000   0.0017625   2.3842683  )
        38           O   tau(  38) = (   0.5000000   0.0016494   2.3628678  )
        39           O   tau(  39) = (   0.0000000   0.4723954   2.4757471  )
        40           O   tau(  40) = (   0.5000000   0.4699129   2.4770818  )
        41           H   tau(  41) = (   0.0000000   0.0626541   0.8925772  )
        42           H   tau(  42) = (   0.0000000   0.0626541   2.5226580  )

     number of k points=     1  Marzari-Vanderbilt smearing, width (Ry)=  0.0300
                       cart. coord. in units 2pi/alat
        k(    1) = (   0.2500000   0.2665641   0.0000000), wk =   2.0000000

     Check: negative core charge=   -0.000001

     Initial potential from superposition of free atoms

     starting charge     361.9933, renormalised to     362.0000

     add environment contribution to local potential
     Polarization accuracy = 6.5E-12, # of iterations =  24

     negative rho (up, down):  4.109E-05 0.000E+00
     Starting wfcs are  234 randomized atomic wfcs
     Checking if some PAW data can be deallocated...

     Self-consistent Calculation

     iteration #  1     ecut=    50.00 Ry     beta= 0.70
     Davidson diagonalization with overlap
     ethr =  1.00E-02,  avg # of iterations =  2.0

     total energy              =   -3427.48232728 Ry
     estimated scf accuracy    <      10.69977948 Ry
     electrostatic embedding   =      -0.00165087 Ry
     cavitation energy         =       0.01981308 Ry
     PV energy                 =      -0.08221747 Ry
     correction to one-el term =     212.97206455 Ry

[...]

     negative rho (up, down):  9.240E-04 0.000E+00

[...]

     the potential shift due to the Gaussian-smeared nuclei is    -1.3150 ev

     End of self-consistent calculation

          k = 0.2500 0.2666 0.0000 ( 35123 PWs)   bands (ev):

   -78.9257 -78.9143 -78.8745 -78.8631 -78.2383 -78.2333 -78.2274 -78.2224
   -77.9582 -77.8861 -77.8819 -77.8642 -49.4327 -49.4214 -49.4120 -49.4007
   -48.8873 -48.8759 -48.7811 -48.7697 -48.5212 -48.5099 -48.4798 -48.4687
   -48.4580 -48.4469 -48.4300 -48.4188 -48.2564 -48.2452 -48.1971 -48.1862
[...]
     atom   41 type  3   force =     0.00000000   -0.04948779  -18.27000553
     atom   42 type  3   force =     0.00000000   -0.04949599   18.27037061
     The local contribution  to forces
     atom    1 type  1   force =    -0.00000000   -0.00249799   99.77271603
     atom    2 type  1   force =    -0.00000000   -0.01121519  100.01530666
     atom    3 type  1   force =     0.00000000   -0.02497985   91.26245065
     atom    4 type  1   force =    -0.00000000   -0.00594053   93.77281606
     atom    5 type  2   force =     3.30269402   -0.00726825  172.82878081
     atom    6 type  2   force =    -3.30269402   -0.00726825  172.82878081
     atom    7 type  1   force =     0.41217924    0.84415783   61.83122791
     atom    8 type  1   force =    -0.41217924    0.84415783   61.83122791
     atom    9 type  2   force =    -0.00000000    0.01780766  172.13747992
     atom   10 type  2   force =    -0.00000000    0.01684575  173.02814291
     atom   11 type  1   force =     0.41142414   -0.83881303   61.76747495
     atom   12 type  1   force =    -0.41142414   -0.83881303   61.76747495
     atom   13 type  1   force =    -0.00000000   -0.00537514   39.05565639
     atom   14 type  1   force =     0.00000000   -0.00566396   37.38364189
     atom   15 type  1   force =     0.00000000    0.00273851   26.75170607
     atom   16 type  1   force =     0.00000000    0.00267820   26.93428331
     atom   17 type  2   force =    -0.00000000    0.01162834   -0.00586075
     atom   18 type  2   force =     0.00000000    0.00937998   -0.00584970
     atom   19 type  1   force =     0.15290146   -1.18602137   -0.00245478
     atom   20 type  1   force =    -0.15290146   -1.18602137   -0.00245478
     atom   21 type  2   force =     0.43587024   -0.00292075   -0.00604162
     atom   22 type  2   force =    -0.43587024   -0.00292075   -0.00604162
     atom   23 type  1   force =     0.15513146    1.18578478   -0.00245475
     atom   24 type  1   force =    -0.15513146    1.18578478   -0.00245475
     atom   25 type  1   force =    -0.00000000    0.00273866  -26.75349976
     atom   26 type  1   force =    -0.00000000    0.00267831  -26.93608521
     atom   27 type  1   force =     0.00000000   -0.00537511  -39.05742007
     atom   28 type  1   force =     0.00000000   -0.00566385  -37.38539194
     atom   29 type  2   force =     3.30269900   -0.00726814 -172.83486016
     atom   30 type  2   force =    -3.30269900   -0.00726814 -172.83486016
     atom   31 type  1   force =     0.41218141    0.84418232  -61.83366963
     atom   32 type  1   force =    -0.41218141    0.84418232  -61.83366963
     atom   33 type  2   force =     0.00000000    0.01780802 -172.14323309
     atom   34 type  2   force =     0.00000000    0.01684635 -173.03391832
     atom   35 type  1   force =     0.41142632   -0.83883749  -61.76991635
     atom   36 type  1   force =    -0.41142632   -0.83883749  -61.76991635
     atom   37 type  1   force =     0.00000000   -0.02498368  -91.26614640
     atom   38 type  1   force =    -0.00000000   -0.00594035  -93.77667001
     atom   39 type  1   force =    -0.00000000   -0.00249738  -99.77409345
     atom   40 type  1   force =     0.00000000   -0.01121429 -100.01667681
     atom   41 type  3   force =    -0.00000000    0.04845089   18.22382373
     atom   42 type  3   force =    -0.00000000    0.04845089  -18.22382373
     The core correction contribution to forces
     atom    1 type  1   force =     0.00000000    0.00000449   -0.01108694
     atom    2 type  1   force =    -0.00000000    0.00001751   -0.01116822
     atom    3 type  1   force =     0.00000000    0.00035661    0.00875025
     atom    4 type  1   force =     0.00000000    0.00001030   -0.01118904
     atom    5 type  2   force =     0.00000000    0.00000000    0.00000000
     atom    6 type  2   force =     0.00000000    0.00000000    0.00000000
     atom    7 type  1   force =    -0.00023486   -0.00051298    0.00163247
     atom    8 type  1   force =     0.00023486   -0.00051298    0.00163247
     atom    9 type  2   force =     0.00000000    0.00000000    0.00000000
     atom   10 type  2   force =     0.00000000    0.00000000    0.00000000
     atom   11 type  1   force =    -0.00023407    0.00050539    0.00167026
     atom   12 type  1   force =     0.00023407    0.00050539    0.00167026
     atom   13 type  1   force =     0.00000000    0.00000077   -0.00107427
     atom   14 type  1   force =     0.00000000    0.00001941    0.00071725
     atom   15 type  1   force =     0.00000000   -0.00000463   -0.00235747
     atom   16 type  1   force =    -0.00000000   -0.00000681   -0.00253412
     atom   17 type  2   force =     0.00000000    0.00000000    0.00000000
     atom   18 type  2   force =     0.00000000    0.00000000    0.00000000
     atom   19 type  1   force =    -0.00000892   -0.00006821   -0.00000201
     atom   20 type  1   force =     0.00000892   -0.00006821   -0.00000201
     atom   21 type  2   force =     0.00000000    0.00000000    0.00000000
     atom   22 type  2   force =     0.00000000    0.00000000    0.00000000
     atom   23 type  1   force =    -0.00001072    0.00006857   -0.00000201
     atom   24 type  1   force =     0.00001072    0.00006857   -0.00000201
     atom   25 type  1   force =     0.00000000   -0.00000463    0.00235540
     atom   26 type  1   force =    -0.00000000   -0.00000681    0.00253203
     atom   27 type  1   force =     0.00000000    0.00000077    0.00107211
     atom   28 type  1   force =     0.00000000    0.00001941   -0.00071956
     atom   29 type  2   force =     0.00000000    0.00000000    0.00000000
     atom   30 type  2   force =     0.00000000    0.00000000    0.00000000
     atom   31 type  1   force =    -0.00023483   -0.00051299   -0.00163392
     atom   32 type  1   force =     0.00023483   -0.00051299   -0.00163392
     atom   33 type  2   force =     0.00000000    0.00000000    0.00000000
     atom   34 type  2   force =     0.00000000    0.00000000    0.00000000
     atom   35 type  1   force =    -0.00023404    0.00050539   -0.00167171
     atom   36 type  1   force =     0.00023404    0.00050539   -0.00167171
     atom   37 type  1   force =    -0.00000000    0.00035666   -0.00875574
     atom   38 type  1   force =    -0.00000000    0.00001030    0.01118505
     atom   39 type  1   force =     0.00000000    0.00000450    0.01108523
     atom   40 type  1   force =    -0.00000000    0.00001752    0.01116645
     atom   41 type  3   force =     0.00000000    0.00000000    0.00000000
     atom   42 type  3   force =     0.00000000    0.00000000    0.00000000
     The Hubbard contrib.    to forces
     atom    1 type  1   force =     0.00000000    0.00000000    0.00000000
     atom    2 type  1   force =     0.00000000    0.00000000    0.00000000
     atom    3 type  1   force =     0.00000000    0.00000000    0.00000000
     atom    4 type  1   force =     0.00000000    0.00000000    0.00000000
     atom    5 type  2   force =     0.00000000    0.00000000    0.00000000
     atom    6 type  2   force =     0.00000000    0.00000000    0.00000000
     atom    7 type  1   force =     0.00000000    0.00000000    0.00000000
     atom    8 type  1   force =     0.00000000    0.00000000    0.00000000
     atom    9 type  2   force =     0.00000000    0.00000000    0.00000000
     atom   10 type  2   force =     0.00000000    0.00000000    0.00000000
     atom   11 type  1   force =     0.00000000    0.00000000    0.00000000
     atom   12 type  1   force =     0.00000000    0.00000000    0.00000000
     atom   13 type  1   force =     0.00000000    0.00000000    0.00000000
     atom   14 type  1   force =     0.00000000    0.00000000    0.00000000
     atom   15 type  1   force =     0.00000000    0.00000000    0.00000000
     atom   16 type  1   force =     0.00000000    0.00000000    0.00000000
     atom   17 type  2   force =     0.00000000    0.00000000    0.00000000
     atom   18 type  2   force =     0.00000000    0.00000000    0.00000000
     atom   19 type  1   force =     0.00000000    0.00000000    0.00000000
     atom   20 type  1   force =     0.00000000    0.00000000    0.00000000
     atom   21 type  2   force =     0.00000000    0.00000000    0.00000000
     atom   22 type  2   force =     0.00000000    0.00000000    0.00000000
     atom   23 type  1   force =     0.00000000    0.00000000    0.00000000
     atom   24 type  1   force =     0.00000000    0.00000000    0.00000000
     atom   25 type  1   force =     0.00000000    0.00000000    0.00000000
     atom   26 type  1   force =     0.00000000    0.00000000    0.00000000
     atom   27 type  1   force =     0.00000000    0.00000000    0.00000000
     atom   28 type  1   force =     0.00000000    0.00000000    0.00000000
     atom   29 type  2   force =     0.00000000    0.00000000    0.00000000
     atom   30 type  2   force =     0.00000000    0.00000000    0.00000000
     atom   31 type  1   force =     0.00000000    0.00000000    0.00000000
     atom   32 type  1   force =     0.00000000    0.00000000    0.00000000
     atom   33 type  2   force =     0.00000000    0.00000000    0.00000000
     atom   34 type  2   force =     0.00000000    0.00000000    0.00000000
     atom   35 type  1   force =     0.00000000    0.00000000    0.00000000
     atom   36 type  1   force =     0.00000000    0.00000000    0.00000000
     atom   37 type  1   force =     0.00000000    0.00000000    0.00000000
     atom   38 type  1   force =     0.00000000    0.00000000    0.00000000
     atom   39 type  1   force =     0.00000000    0.00000000    0.00000000
     atom   40 type  1   force =     0.00000000    0.00000000    0.00000000
     atom   41 type  3   force =     0.00000000    0.00000000    0.00000000
     atom   42 type  3   force =     0.00000000    0.00000000    0.00000000
     The SCF correction term to forces
     atom    1 type  1   force =    -0.00000000    0.00000053   -0.00000119
     atom    2 type  1   force =     0.00000000   -0.00000023   -0.00000148
     atom    3 type  1   force =     0.00000000   -0.00000085   -0.00000133
     atom    4 type  1   force =    -0.00000000    0.00000025   -0.00000129
     atom    5 type  2   force =     0.00000012   -0.00000023   -0.00000357
     atom    6 type  2   force =    -0.00000012   -0.00000023   -0.00000357
     atom    7 type  1   force =    -0.00000010   -0.00000020   -0.00000119
     atom    8 type  1   force =     0.00000010   -0.00000020   -0.00000119
     atom    9 type  2   force =    -0.00000000    0.00000058   -0.00000389
     atom   10 type  2   force =    -0.00000000   -0.00000040   -0.00000318
     atom   11 type  1   force =    -0.00000047    0.00000031   -0.00000131
     atom   12 type  1   force =     0.00000047    0.00000031   -0.00000131
     atom   13 type  1   force =    -0.00000000   -0.00000004   -0.00000137
     atom   14 type  1   force =    -0.00000000    0.00000009   -0.00000103
     atom   15 type  1   force =    -0.00000000    0.00000003   -0.00000095
     atom   16 type  1   force =    -0.00000000   -0.00000001   -0.00000057
     atom   17 type  2   force =    -0.00000000   -0.00000004   -0.00000001
     atom   18 type  2   force =    -0.00000000    0.00000016   -0.00000001
     atom   19 type  1   force =     0.00000030   -0.00000006   -0.00000000
     atom   20 type  1   force =    -0.00000030   -0.00000006   -0.00000000
     atom   21 type  2   force =     0.00000018   -0.00000005   -0.00000001
     atom   22 type  2   force =    -0.00000018   -0.00000005   -0.00000001
     atom   23 type  1   force =     0.00000022    0.00000013   -0.00000000
     atom   24 type  1   force =    -0.00000022    0.00000013   -0.00000000
     atom   25 type  1   force =    -0.00000000    0.00000003    0.00000094
     atom   26 type  1   force =    -0.00000000   -0.00000001    0.00000056
     atom   27 type  1   force =    -0.00000000   -0.00000004    0.00000136
     atom   28 type  1   force =     0.00000000    0.00000009    0.00000103
     atom   29 type  2   force =     0.00000012   -0.00000023    0.00000357
     atom   30 type  2   force =    -0.00000012   -0.00000023    0.00000357
     atom   31 type  1   force =    -0.00000010   -0.00000020    0.00000119
     atom   32 type  1   force =     0.00000010   -0.00000020    0.00000119
     atom   33 type  2   force =     0.00000000    0.00000058    0.00000389
     atom   34 type  2   force =    -0.00000000   -0.00000040    0.00000319
     atom   35 type  1   force =    -0.00000047    0.00000031    0.00000131
     atom   36 type  1   force =     0.00000047    0.00000031    0.00000131
     atom   37 type  1   force =    -0.00000000   -0.00000085    0.00000133
     atom   38 type  1   force =     0.00000000    0.00000026    0.00000129
     atom   39 type  1   force =     0.00000000    0.00000053    0.00000119
     atom   40 type  1   force =     0.00000000   -0.00000023    0.00000148
     atom   41 type  3   force =    -0.00000000   -0.00000006   -0.00000012
     atom   42 type  3   force =    -0.00000000   -0.00000006    0.00000012

     Total force =     0.000255     Total SCF correction =     0.000012
     Energy error            =      1.0E-06 Ry
     Gradient error          =      7.5E-05 Ry/Bohr

     bfgs converged in  42 scf cycles and  41 bfgs steps
     (criteria: energy <  1.0E-04 Ry, force <  1.0E-04 Ry/Bohr)

     End of BFGS Geometry Optimization

     Final energy             =   -3430.1827646942 Ry

     File /storage/home/mgm6007/ixd4/Maria/Strain2_Files/RuO2-110-0-2/RuO2-110-0-2.bfgs deleted, as requested
Begin final coordinates

ATOMIC_POSITIONS (crystal)
O             0.0000000000        0.5058153678        0.2749457051
O             0.5000000000        0.5059918010        0.2743814562
O             0.0000000000        0.0056056035        0.3027311857
O             0.5000000000        0.0056007176        0.3078254321
Ru            0.2566164171        0.0055464940        0.3570073926
Ru            0.7433835829        0.0055464940        0.3570073926
O             0.2500547837        0.3165971030        0.3597027700
O             0.7499452163        0.3165971030        0.3597027700
Ru            0.0000000000        0.5055588261        0.3525535412
Ru            0.5000000000        0.5055842403        0.3518493204
O             0.2500231304        0.6945270379        0.3597923803
O             0.7499768696        0.6945270379        0.3597923803
O             0.0000000000        0.0055904983        0.4124100254
O             0.5000000000        0.0056200160        0.4115844763
O             0.0000000000        0.5054291936        0.4449235952
O             0.5000000000        0.5054299730        0.4453244396
Ru            0.0000000000        0.0054710200        0.5000010000
Ru            0.5000000000        0.0054542757        0.5000010000
O             0.2501162759        0.1935374259        0.5000010000
O             0.7498837241        0.1935374259        0.5000010000
Ru            0.2503118687        0.5054493473        0.5000010000
Ru            0.7496881313        0.5054493473        0.5000010000
O             0.2501267850        0.8173664876        0.5000010000
O             0.7498732150        0.8173664876        0.5000010000
O             0.0000000000        0.5054291936        0.5550774048
O             0.5000000000        0.5054299730        0.5546765604
O             0.0000000000        0.0055904983        0.5875909746
O             0.5000000000        0.0056200160        0.5884165237
Ru            0.2566164171        0.0055464940        0.6429936074
Ru            0.7433835829        0.0055464940        0.6429936074
O             0.2500547837        0.3165971030        0.6402982300
O             0.7499452163        0.3165971030        0.6402982300
Ru            0.0000000000        0.5055588261        0.6474474588
Ru            0.5000000000        0.5055842403        0.6481516796
O             0.2500231304        0.6945270379        0.6402086197
O             0.7499768696        0.6945270379        0.6402086197
O             0.0000000000        0.0056056035        0.6972708143
O             0.5000000000        0.0056007176        0.6921765679
O             0.0000000000        0.5058153678        0.7250552949
O             0.5000000000        0.5059918010        0.7256195438
H             0.0000000000        0.0028335841        0.2585177957
H             0.0000000000        0.0028335841        0.7414822043
End final coordinates

     Writing all to output data dir /storage/home/mgm6007/ixd4/Maria/Strain2_Files/RuO2-110-0-2/RuO2-110-0-2.save/

     General routines

     Parallel routines

     Environ routines

   This run was terminated on:  21:10:46  23Jul2023

   JOB DONE.