     Program PWSCF v.7.2 starts on 19Jul2023 at 20:28:47
        Git branch: heads/qe-7.2
        Last git commit: b4c5e8deeb7d1863e7553a87b45f8d22c21926a5
        Last git commit date: Mon Mar 27 16:12:09 2023 +0000
        Last git commit subject: Merge branch 'merge_fix_hubbard' into 'develop'

     Reading input from RuO2-110-0-035.in

     Current dimensions of program PWSCF are:
     Max number of different atomic species (ntypx) = 10
     Max number of k-points (npk) =  40000
     Max angular momentum in pseudopotentials (lmaxx) =  4

     Reading input from environ.in:
     * Environ restarting
     * setting up water environment
     * using electronic solvent mode
     * setting boundary derivatives method to SCCS default

     file O.pbe-n-kjpaw_psl.0.1.UPF: wavefunction(s)  2P renormalized
     Message from routine setup:
     using ibrav=0 with symmetry is DISCOURAGED, use correct ibrav instead

     R & G space division:  proc/nbgrp/npool/nimage =      20
     Subspace diagonalization in iterative solution of the eigenvalue problem:
     one sub-group per band group will be used

     Using Slab Decomposition

     bravais-lattice index     =            0
     lattice parameter (alat)  =      12.1041  a.u.
     unit-cell volume          =    5954.5483 (a.u.)^3
     number of atoms/cell      =           46
     number of atomic types    =            3
     number of electrons       =       366.00
     number of Kohn-Sham states=          220
     kinetic-energy cutoff     =      50.0000  Ry
     charge density cutoff     =     500.0000  Ry
     scf convergence threshold =      1.0E-09
     mixing beta               =       0.7000
     number of iterations used =            8  local-TF  mixing
     energy convergence thresh.=      1.0E-04
     force convergence thresh. =      1.0E-04
     Exchange-correlation= PBE
                           (   1   4   3   4   0   0   0)
     nstep                     =          200

                                  Environ Setup Summary

          O. Andreussi, I. Dabo and N. Marzari, J. Chem. Phys. 136, 064102 (2012)

     in publications or presentations arising from this work.

     Parameters

     compensation onset threshold      =               0.1000E+00
     static permittivity               =                    78.30
     surface tension in input (dyn/cm) =                    47.90
     surface tension in internal units =               0.6153E-04
     external pressure in input (GPa)  =                    -0.36
     external pressure in inter. units =              -0.2447E-04

     Solvent Boundary

     solvent mode                      =               electronic
     derivatives method                =                    chain
     numerical core for derivatives    =                      fft
     switching function adopted        =                     SCCS
     density limit for vacuum region   =               0.5000E-02
     density limit for bulk solvent    =               0.1000E-03

     Electrostatic Setup

     electrostatic problem to solve    =              generalized
     numerical solver adopted          =                       cg
     type of auxiliary density adopted =                     none
     numerical core for poisson        =                      fft
     type of pbc corrections           =                parabolic
     numerical core for corrections    =                      1da

     celldm(1)=  12.104053  celldm(2)=   0.000000  celldm(3)=   0.000000
     celldm(4)=   0.000000  celldm(5)=   0.000000  celldm(6)=   0.000000

     crystal axes: (cart. coord. in units of alat)
               a(1) = (   1.000000   0.000000   0.000000 )
               a(2) = (   0.000000   0.971735   0.000000 )
               a(3) = (   0.000000   0.000000   3.455479 )

     reciprocal axes: (cart. coord. in units 2 pi/alat)
               b(1) = (  1.000000  0.000000  0.000000 )
               b(2) = (  0.000000  1.029087  0.000000 )
               b(3) = (  0.000000  0.000000  0.289395 )

     PseudoPot. # 1 for O  read from file:
     /gpfs/group/ixd4/default/Simon/pseudopotentials/materialscloud/SSSP_1.3.0_PBE_efficiency/O.pbe-n-kjpaw_psl.0.1.UPF
     MD5 check sum: 0234752ac141de4415c5fc33072bef88
     Pseudo is Projector augmented-wave + core cor, Zval =  6.0
     Generated using "atomic" code by A. Dal Corso  v.5.0.99 svn rev. 10869
     Shape of augmentation charge: BESSEL
     Using radial grid of 1095 points,  4 beta functions with:
                l(1) =   0
                l(2) =   0
                l(3) =   1
                l(4) =   1
     Q(r) pseudized with 0 coefficients

     PseudoPot. # 2 for Ru read from file:
     /gpfs/group/ixd4/default/Simon/pseudopotentials/materialscloud/SSSP_1.3.0_PBE_efficiency/Ru_ONCV_PBE-1.0.oncvpsp.upf
     MD5 check sum: be037bb81c227cfb9b1461a9f099f4bd
     Pseudo is Norm-conserving, Zval = 16.0
     Generated using ONCVPSP code by D. R. Hamann
     Using radial grid of 1458 points,  6 beta functions with:
                l(1) =   0
                l(2) =   0
                l(3) =   1
                l(4) =   1
                l(5) =   2
                l(6) =   2

     PseudoPot. # 3 for H  read from file:
     /gpfs/group/ixd4/default/Simon/pseudopotentials/materialscloud/SSSP_1.3.0_PBE_efficiency/H.pbe-rrkjus_psl.1.0.0.UPF
     MD5 check sum: f52b6d4d1c606e5624b1dc7b2218f220
     Pseudo is Ultrasoft, Zval =  1.0
     Generated using "atomic" code by A. Dal Corso  v.5.1
     Using radial grid of  929 points,  2 beta functions with:
                l(1) =   0
                l(2) =   0
     Q(r) pseudized with 0 coefficients

     atomic species   valence    mass     pseudopotential
        O              6.00    15.99940     O ( 1.00)
        Ru            16.00   101.07000     Ru( 1.00)
        H              1.00     1.00794     H ( 1.00)

      4 Sym. Ops. (no inversion) found

   Cartesian axes

     site n.     atom                  positions (alat units)
         1           O   tau(   1) = (   0.0178249   0.4858677   0.9344291  )
         2           O   tau(   2) = (   0.4710547   0.4858677   0.9465082  )
         3           O   tau(   3) = (  -0.0015694   0.0000000   1.0645346  )
         4           O   tau(   4) = (   0.4965735   0.0000000   0.9977354  )
         5           Ru  tau(   5) = (   0.2387225   0.0000000   1.2376651  )
         6           Ru  tau(   6) = (   0.7548744   0.0000000   1.2340713  )
         7           O   tau(   7) = (   0.2466953   0.2945421   1.2412356  )
         8           O   tau(   8) = (   0.7517147   0.2993095   1.2298278  )
         9           Ru  tau(   9) = (   0.0025688   0.4858677   1.2363368  )
        10           Ru  tau(  10) = (   0.5038405   0.4858677   1.2189901  )
        11           O   tau(  11) = (   0.2466953   0.6771933   1.2412356  )
        12           O   tau(  12) = (   0.7517147   0.6724259   1.2298278  )
        13           O   tau(  13) = (  -0.0044770   0.0000000   1.4254937  )
        14           O   tau(  14) = (   0.5009947   0.0000000   1.4222124  )
        15           O   tau(  15) = (  -0.0026601   0.4858677   1.5409872  )
        16           O   tau(  16) = (   0.4932853   0.4858677   1.5250940  )
        17           Ru  tau(  17) = (  -0.0064267   0.0000000   1.7277432  )
        18           Ru  tau(  18) = (   0.4995895   0.0000000   1.7277432  )
        19           O   tau(  19) = (   0.2499376   0.1851010   1.7277432  )
        20           O   tau(  20) = (   0.7437630   0.1922321   1.7277432  )
        21           Ru  tau(  21) = (   0.2522950   0.4858677   1.7277432  )
        22           Ru  tau(  22) = (   0.7435734   0.4858677   1.7277432  )
        23           O   tau(  23) = (   0.2499376   0.7866353   1.7277432  )
        24           O   tau(  24) = (   0.7437630   0.7795042   1.7277432  )
        25           O   tau(  25) = (  -0.0026601   0.4858677   1.9144958  )
        26           O   tau(  26) = (   0.4932853   0.4858677   1.9303889  )
        27           O   tau(  27) = (  -0.0044770   0.0000000   2.0299893  )
        28           O   tau(  28) = (   0.5009947   0.0000000   2.0332706  )
        29           Ru  tau(  29) = (   0.2387225   0.0000000   2.2178178  )
        30           Ru  tau(  30) = (   0.7548744   0.0000000   2.2214116  )
        31           O   tau(  31) = (   0.2466953   0.2945421   2.2142473  )
        32           O   tau(  32) = (   0.7517147   0.2993095   2.2256552  )
        33           Ru  tau(  33) = (   0.0025688   0.4858677   2.2191461  )
        34           Ru  tau(  34) = (   0.5038405   0.4858677   2.2364929  )
        35           O   tau(  35) = (   0.2466953   0.6771933   2.2142473  )
        36           O   tau(  36) = (   0.7517147   0.6724259   2.2256552  )
        37           O   tau(  37) = (  -0.0015694   0.0000000   2.3909518  )
        38           O   tau(  38) = (   0.4965735   0.0000000   2.4577510  )
        39           O   tau(  39) = (   0.0178249   0.4858677   2.5210539  )
        40           O   tau(  40) = (   0.4710547   0.4858677   2.5089747  )
        41           H   tau(  41) = (   0.1684170   0.4858677   0.8979320  )
        42           H   tau(  42) = (   0.1684170   0.4858677   2.5575475  )
        43           H   tau(  43) = (   0.4965745   0.1155802   0.9041748  )
        44           H   tau(  44) = (   0.4965745   0.1155802   2.5513047  )
        45           H   tau(  45) = (   0.4965745   0.8561552   0.9041748  )
        46           H   tau(  46) = (   0.4965745   0.8561552   2.5513047  )

     number of k points=     1  Marzari-Vanderbilt smearing, width (Ry)=  0.0300
                       cart. coord. in units 2pi/alat
        k(    1) = (   0.2500000   0.2572717   0.0000000), wk =   2.0000000

     Check: negative core charge=   -0.000001

     Initial potential from superposition of free atoms

     starting charge     365.9933, renormalised to     366.0000

     add environment contribution to local potential
     Polarization accuracy = 3.3E-12, # of iterations =  24

     negative rho (up, down):  3.080E-05 0.000E+00
     Starting wfcs are  238 randomized atomic wfcs
     Checking if some PAW data can be deallocated...

     Self-consistent Calculation

     iteration #  1     ecut=    50.00 Ry     beta= 0.70
     Davidson diagonalization with overlap
     ethr =  1.00E-02,  avg # of iterations =  2.0

     negative rho (up, down):  1.715E-08 0.000E+00

     total energy              =   -3432.82255170 Ry
     estimated scf accuracy    <       9.83196371 Ry
     electrostatic embedding   =      -0.00177284 Ry
     cavitation energy         =       0.01999743 Ry
     PV energy                 =      -0.08583905 Ry
     correction to one-el term =     215.98893972 Ry

[...]

     the potential shift due to the Gaussian-smeared nuclei is    -1.3136 ev

     End of self-consistent calculation

          k = 0.2500 0.2573 0.0000 ( 35510 PWs)   bands (ev):

   -77.5446 -77.5305 -77.0298 -77.0163 -76.9263 -76.9128 -76.8960 -76.8822
   -76.7876 -76.7431 -76.7219 -76.6469 -48.0142 -48.0002 -47.4229 -47.4088
   -47.2911 -47.2776 -47.2134 -47.2117 -47.1994 -47.1980 -47.1178 -47.1042
[...]
     atom   18 type  2   force =    -0.09221974    0.00000000   -0.00586967
     atom   19 type  1   force =    -0.03997772   -1.63057495   -0.00242624
     atom   20 type  1   force =     0.06293923   -1.64679980   -0.00243358
     atom   21 type  2   force =    -0.96657471   -0.00000000   -0.00596408
     atom   22 type  2   force =     1.11839585   -0.00000000   -0.00598187
     atom   23 type  1   force =    -0.03997663    1.63020606   -0.00242624
     atom   24 type  1   force =     0.06293770    1.64643218   -0.00243358
     atom   25 type  1   force =     0.21582624    0.00000000  -24.90560677
     atom   26 type  1   force =    -0.25793902    0.00000000  -26.72832059
     atom   27 type  1   force =     0.25587383   -0.00000000  -35.98197294
     atom   28 type  1   force =    -0.09181880   -0.00000000  -38.70914576
     atom   29 type  2   force =    -6.21286287    0.00000000 -167.69347557
     atom   30 type  2   force =     6.04349564    0.00000000 -168.79805142
     atom   31 type  1   force =    -0.99405348    1.45698616  -60.91103060
     atom   32 type  1   force =     0.68102094    1.46778356  -63.30943116
     atom   33 type  2   force =     1.56379998    0.00000000 -165.45418235
     atom   34 type  2   force =    -1.44016540   -0.00000000 -169.24685361
     atom   35 type  1   force =    -0.99405348   -1.45698616  -60.91103060
     atom   36 type  1   force =     0.68102094   -1.46778356  -63.30943116
     atom   37 type  1   force =     0.19946471    0.00000000  -92.46292906
     atom   38 type  1   force =    -0.14706300   -0.00000000  -89.14891622
     atom   39 type  1   force =     1.82982257   -0.00000000  -94.04164792
     atom   40 type  1   force =    -0.34242900    0.00000000  -96.74090619
     atom   41 type  3   force =    -2.54396196    0.00000000   15.93632887
     atom   42 type  3   force =    -2.54396196    0.00000000  -15.93632887
     atom   43 type  3   force =    -0.05447014   -2.28854120   16.70826596
     atom   44 type  3   force =    -0.05447014   -2.28854120  -16.70826596
     atom   45 type  3   force =    -0.05447014    2.28854120   16.70826596
     atom   46 type  3   force =    -0.05447014    2.28854120  -16.70826596
     The core correction contribution to forces
     atom    1 type  1   force =    -0.01694603   -0.00000000   -0.00557182
     atom    2 type  1   force =     0.00003289   -0.00000000   -0.00989283
     atom    3 type  1   force =    -0.00000737    0.00000000   -0.01125342
     atom    4 type  1   force =    -0.00005035   -0.00000000    0.01318427
     atom    5 type  2   force =     0.00000000    0.00000000    0.00000000
     atom    6 type  2   force =     0.00000000    0.00000000    0.00000000
     atom    7 type  1   force =    -0.00021492   -0.00032124    0.00096214
     atom    8 type  1   force =     0.00084722   -0.00032058   -0.00000607
     atom    9 type  2   force =     0.00000000    0.00000000    0.00000000
     atom   10 type  2   force =     0.00000000    0.00000000    0.00000000
     atom   11 type  1   force =    -0.00021492    0.00032124    0.00096214
     atom   12 type  1   force =     0.00084722    0.00032058   -0.00000607
     atom   13 type  1   force =    -0.00015170    0.00000000    0.00240591
     atom   14 type  1   force =    -0.00007203    0.00000000   -0.00066220
     atom   15 type  1   force =     0.00022738    0.00000000   -0.00036578
     atom   16 type  1   force =    -0.00005217    0.00000000   -0.00291671
     atom   17 type  2   force =     0.00000000    0.00000000    0.00000000
     atom   18 type  2   force =     0.00000000    0.00000000    0.00000000
     atom   19 type  1   force =    -0.00006457    0.00007676   -0.00000195
     atom   20 type  1   force =     0.00000650    0.00018808   -0.00000196
     atom   21 type  2   force =     0.00000000    0.00000000    0.00000000
     atom   22 type  2   force =     0.00000000    0.00000000    0.00000000
     atom   23 type  1   force =    -0.00006456   -0.00007739   -0.00000195
     atom   24 type  1   force =     0.00000649   -0.00018869   -0.00000196
     atom   25 type  1   force =     0.00022734   -0.00000000    0.00036357
     atom   26 type  1   force =    -0.00005212   -0.00000000    0.00291467
     atom   27 type  1   force =    -0.00015171   -0.00000000   -0.00240828
     atom   28 type  1   force =    -0.00007203   -0.00000000    0.00065998
     atom   29 type  2   force =     0.00000000    0.00000000    0.00000000
     atom   30 type  2   force =     0.00000000    0.00000000    0.00000000
     atom   31 type  1   force =    -0.00021496   -0.00032122   -0.00096384
     atom   32 type  1   force =     0.00084724   -0.00032047    0.00000427
     atom   33 type  2   force =     0.00000000    0.00000000    0.00000000
     atom   34 type  2   force =     0.00000000    0.00000000    0.00000000
     atom   35 type  1   force =    -0.00021496    0.00032122   -0.00096384
     atom   36 type  1   force =     0.00084724    0.00032047    0.00000427
     atom   37 type  1   force =    -0.00000732   -0.00000000    0.01124956
     atom   38 type  1   force =    -0.00005033    0.00000000   -0.01318808
     atom   39 type  1   force =    -0.01694674   -0.00000000    0.00556953
     atom   40 type  1   force =     0.00003272   -0.00000000    0.00989079
     atom   41 type  3   force =     0.00000000    0.00000000    0.00000000
     atom   42 type  3   force =     0.00000000    0.00000000    0.00000000
     atom   43 type  3   force =     0.00000000    0.00000000    0.00000000
     atom   44 type  3   force =     0.00000000    0.00000000    0.00000000
     atom   45 type  3   force =     0.00000000    0.00000000    0.00000000
     atom   46 type  3   force =     0.00000000    0.00000000    0.00000000
     The Hubbard contrib.    to forces
     atom    1 type  1   force =     0.00000000    0.00000000    0.00000000
     atom    2 type  1   force =     0.00000000    0.00000000    0.00000000
     atom    3 type  1   force =     0.00000000    0.00000000    0.00000000
     atom    4 type  1   force =     0.00000000    0.00000000    0.00000000
     atom    5 type  2   force =     0.00000000    0.00000000    0.00000000
     atom    6 type  2   force =     0.00000000    0.00000000    0.00000000
     atom    7 type  1   force =     0.00000000    0.00000000    0.00000000
     atom    8 type  1   force =     0.00000000    0.00000000    0.00000000
     atom    9 type  2   force =     0.00000000    0.00000000    0.00000000
     atom   10 type  2   force =     0.00000000    0.00000000    0.00000000
     atom   11 type  1   force =     0.00000000    0.00000000    0.00000000
     atom   12 type  1   force =     0.00000000    0.00000000    0.00000000
     atom   13 type  1   force =     0.00000000    0.00000000    0.00000000
     atom   14 type  1   force =     0.00000000    0.00000000    0.00000000
     atom   15 type  1   force =     0.00000000    0.00000000    0.00000000
     atom   16 type  1   force =     0.00000000    0.00000000    0.00000000
     atom   17 type  2   force =     0.00000000    0.00000000    0.00000000
     atom   18 type  2   force =     0.00000000    0.00000000    0.00000000
     atom   19 type  1   force =     0.00000000    0.00000000    0.00000000
     atom   20 type  1   force =     0.00000000    0.00000000    0.00000000
     atom   21 type  2   force =     0.00000000    0.00000000    0.00000000
     atom   22 type  2   force =     0.00000000    0.00000000    0.00000000
     atom   23 type  1   force =     0.00000000    0.00000000    0.00000000
     atom   24 type  1   force =     0.00000000    0.00000000    0.00000000
     atom   25 type  1   force =     0.00000000    0.00000000    0.00000000
     atom   26 type  1   force =     0.00000000    0.00000000    0.00000000
     atom   27 type  1   force =     0.00000000    0.00000000    0.00000000
     atom   28 type  1   force =     0.00000000    0.00000000    0.00000000
     atom   29 type  2   force =     0.00000000    0.00000000    0.00000000
     atom   30 type  2   force =     0.00000000    0.00000000    0.00000000
     atom   31 type  1   force =     0.00000000    0.00000000    0.00000000
     atom   32 type  1   force =     0.00000000    0.00000000    0.00000000
     atom   33 type  2   force =     0.00000000    0.00000000    0.00000000
     atom   34 type  2   force =     0.00000000    0.00000000    0.00000000
     atom   35 type  1   force =     0.00000000    0.00000000    0.00000000
     atom   36 type  1   force =     0.00000000    0.00000000    0.00000000
     atom   37 type  1   force =     0.00000000    0.00000000    0.00000000
     atom   38 type  1   force =     0.00000000    0.00000000    0.00000000
     atom   39 type  1   force =     0.00000000    0.00000000    0.00000000
     atom   40 type  1   force =     0.00000000    0.00000000    0.00000000
     atom   41 type  3   force =     0.00000000    0.00000000    0.00000000
     atom   42 type  3   force =     0.00000000    0.00000000    0.00000000
     atom   43 type  3   force =     0.00000000    0.00000000    0.00000000
     atom   44 type  3   force =     0.00000000    0.00000000    0.00000000
     atom   45 type  3   force =     0.00000000    0.00000000    0.00000000
     atom   46 type  3   force =     0.00000000    0.00000000    0.00000000
     The SCF correction term to forces
     atom    1 type  1   force =    -0.00000168    0.00000000   -0.00000046
     atom    2 type  1   force =     0.00000160    0.00000000   -0.00000004
     atom    3 type  1   force =    -0.00000195   -0.00000000    0.00000024
     atom    4 type  1   force =     0.00000222    0.00000000   -0.00000007
     atom    5 type  2   force =    -0.00000000   -0.00000000    0.00000002
     atom    6 type  2   force =    -0.00000034   -0.00000000   -0.00000152
     atom    7 type  1   force =    -0.00000007   -0.00000064    0.00000073
     atom    8 type  1   force =     0.00000005   -0.00000168   -0.00000008
     atom    9 type  2   force =    -0.00000225    0.00000000    0.00000122
     atom   10 type  2   force =     0.00000246    0.00000000    0.00000197
     atom   11 type  1   force =    -0.00000007    0.00000064    0.00000073
     atom   12 type  1   force =     0.00000005    0.00000168   -0.00000008
     atom   13 type  1   force =    -0.00000129   -0.00000000   -0.00000033
     atom   14 type  1   force =     0.00000129   -0.00000000   -0.00000107
     atom   15 type  1   force =     0.00000033    0.00000000    0.00000134
     atom   16 type  1   force =    -0.00000051    0.00000000    0.00000122
     atom   17 type  2   force =    -0.00000174   -0.00000000    0.00000001
     atom   18 type  2   force =     0.00000221   -0.00000000    0.00000001
     atom   19 type  1   force =    -0.00000064    0.00000202    0.00000001
     atom   20 type  1   force =     0.00000063    0.00000006    0.00000000
     atom   21 type  2   force =    -0.00000037    0.00000000    0.00000002
     atom   22 type  2   force =     0.00000004   -0.00000000    0.00000001
     atom   23 type  1   force =    -0.00000064   -0.00000202    0.00000001
     atom   24 type  1   force =     0.00000063   -0.00000006    0.00000000
     atom   25 type  1   force =     0.00000033    0.00000000   -0.00000132
     atom   26 type  1   force =    -0.00000051    0.00000000   -0.00000121
     atom   27 type  1   force =    -0.00000129   -0.00000000    0.00000034
     atom   28 type  1   force =     0.00000129   -0.00000000    0.00000109
     atom   29 type  2   force =    -0.00000001   -0.00000000    0.00000000
     atom   30 type  2   force =    -0.00000033    0.00000000    0.00000154
     atom   31 type  1   force =    -0.00000007   -0.00000064   -0.00000073
     atom   32 type  1   force =     0.00000005   -0.00000169    0.00000009
     atom   33 type  2   force =    -0.00000224    0.00000000   -0.00000122
     atom   34 type  2   force =     0.00000245    0.00000000   -0.00000196
     atom   35 type  1   force =    -0.00000007    0.00000064   -0.00000073
     atom   36 type  1   force =     0.00000005    0.00000169    0.00000009
     atom   37 type  1   force =    -0.00000195   -0.00000000   -0.00000025
     atom   38 type  1   force =     0.00000222   -0.00000000    0.00000007
     atom   39 type  1   force =    -0.00000168    0.00000000    0.00000046
     atom   40 type  1   force =     0.00000160    0.00000000    0.00000003
     atom   41 type  3   force =    -0.00000012   -0.00000000   -0.00000010
     atom   42 type  3   force =    -0.00000012    0.00000000    0.00000010
     atom   43 type  3   force =     0.00000022   -0.00000024    0.00000009
     atom   44 type  3   force =     0.00000022   -0.00000024   -0.00000009
     atom   45 type  3   force =     0.00000022    0.00000024    0.00000009
     atom   46 type  3   force =     0.00000022    0.00000024   -0.00000009

     Total force =     0.000250     Total SCF correction =     0.000011
     Energy error            =      5.4E-08 Ry
     Gradient error          =      5.8E-05 Ry/Bohr

     bfgs converged in  30 scf cycles and  29 bfgs steps
     (criteria: energy <  1.0E-04 Ry, force <  1.0E-04 Ry/Bohr)

     End of BFGS Geometry Optimization

     Final energy             =   -3435.2309724008 Ry

     File /storage/home/mgm6007/ixd4/Maria/Strain0_Files/RuO2-110-0-035/RuO2-110-0-035.bfgs deleted, as requested
Begin final coordinates

ATOMIC_POSITIONS (crystal)
O             0.0149792315        0.5000000000        0.2696403913
O             0.4751348517        0.5000000000        0.2721653837
O            -0.0008570685        0.0000000000        0.3071264122
O             0.4970394996        0.0000000000        0.2884749269
Ru            0.2382576505        0.0000000000        0.3578633472
Ru            0.7566978889        0.0000000000        0.3570052577
O             0.2468040274        0.3071232131        0.3588830361
O             0.7501340935        0.3094476619        0.3556717924
Ru           -0.0001363149        0.5000000000        0.3571959262
Ru            0.4999722200        0.5000000000        0.3519735152
O             0.2468040274        0.6928767869        0.3588830361
O             0.7501340935        0.6905523381        0.3556717924
O            -0.0033722507        0.0000000000        0.4120880490
O             0.5000062005        0.0000000000        0.4112767934
O            -0.0018546253        0.5000000000        0.4460327740
O             0.4975875939        0.5000000000        0.4415912144
Ru           -0.0025351595        0.0000000000        0.5000010000
Ru            0.4983104528        0.0000000000        0.5000010000
O             0.2498363621        0.1896368239        0.5000010000
O             0.7460090321        0.1904131732        0.5000010000
Ru            0.2529657656        0.5000000000        0.5000010000
Ru            0.7442440226        0.5000000000        0.5000010000
O             0.2498363621        0.8103641761        0.5000010000
O             0.7460090321        0.8095878268        0.5000010000
O            -0.0018546253        0.5000000000        0.5539682260
O             0.4975875939        0.5000000000        0.5584097856
O            -0.0033722507        0.0000000000        0.5879129510
O             0.5000062005        0.0000000000        0.5887242066
Ru            0.2382576505        0.0000000000        0.6421376528
Ru            0.7566978889        0.0000000000        0.6429957423
O             0.2468040274        0.3071232131        0.6411179639
O             0.7501340935        0.3094476619        0.6443292076
Ru           -0.0001363149        0.5000000000        0.6428050738
Ru            0.4999722200        0.5000000000        0.6480274848
O             0.2468040274        0.6928767869        0.6411179639
O             0.7501340935        0.6905523381        0.6443292076
O            -0.0008570685        0.0000000000        0.6928755878
O             0.4970394996        0.0000000000        0.7115270731
O             0.0149792315        0.5000000000        0.7303606087
O             0.4751348517        0.5000000000        0.7278356163
H             0.1640674890        0.5000000000        0.2583712043
H             0.1640674890        0.5000000000        0.7416287957
H             0.4969492285        0.1262064564        0.2615018510
H             0.4969492285        0.1262064564        0.7384981490
H             0.4969492285        0.8737935436        0.2615018510
H             0.4969492285        0.8737935436        0.7384981490
End final coordinates

     Writing all to output data dir /storage/home/mgm6007/ixd4/Maria/Strain0_Files/RuO2-110-0-035/RuO2-110-0-035.save/

     General routines

     Parallel routines

     Environ routines

   This run was terminated on:  13:11: 5  21Jul2023

   JOB DONE.