     Program PWSCF v.7.2 starts on 14Jul2023 at 10:21:54
        Git branch: heads/qe-7.2
        Last git commit: b4c5e8deeb7d1863e7553a87b45f8d22c21926a5
        Last git commit date: Mon Mar 27 16:12:09 2023 +0000
        Last git commit subject: Merge branch 'merge_fix_hubbard' into 'develop'

     Reading input from RuO2-110-0-0.in

     Current dimensions of program PWSCF are:
     Max number of different atomic species (ntypx) = 10
     Max number of k-points (npk) =  40000
     Max angular momentum in pseudopotentials (lmaxx) =  4

     Reading input from environ.in:
     * Environ restarting
     * setting up water environment
     * using electronic solvent mode
     * setting boundary derivatives method to SCCS default

     file O.pbe-n-kjpaw_psl.0.1.UPF: wavefunction(s)  2P renormalized
     Message from routine setup:
     using ibrav=0 with symmetry is DISCOURAGED, use correct ibrav instead

     R & G space division:  proc/nbgrp/npool/nimage =      20
     Subspace diagonalization in iterative solution of the eigenvalue problem:
     one sub-group per band group will be used

     Using Slab Decomposition

     bravais-lattice index     =            0
     lattice parameter (alat)  =      12.3893  a.u.
     unit-cell volume          =    5808.5831 (a.u.)^3
     number of atoms/cell      =           42
     number of atomic types    =            3
     number of electrons       =       362.00
     number of Kohn-Sham states=          217
     kinetic-energy cutoff     =      50.0000  Ry
     charge density cutoff     =     500.0000  Ry
     scf convergence threshold =      1.0E-10
     mixing beta               =       0.7000
     number of iterations used =            8  local-TF  mixing
     energy convergence thresh.=      1.0E-04
     force convergence thresh. =      1.0E-04
     Exchange-correlation= PBE
                           (   1   4   3   4   0   0   0)
     nstep                     =          200

                                  Environ Setup Summary

          O. Andreussi, I. Dabo and N. Marzari, J. Chem. Phys. 136, 064102 (2012)

     in publications or presentations arising from this work.

     Parameters

     compensation onset threshold      =               0.1000E+00
     static permittivity               =                    78.30
     surface tension in input (dyn/cm) =                    47.90
     surface tension in internal units =               0.6153E-04
     external pressure in input (GPa)  =                    -0.36
     external pressure in inter. units =              -0.2447E-04

     Solvent Boundary

     solvent mode                      =               electronic
     derivatives method                =                    chain
     numerical core for derivatives    =                      fft
     switching function adopted        =                     SCCS
     density limit for vacuum region   =               0.5000E-02
     density limit for bulk solvent    =               0.1000E-03

     Electrostatic Setup

     electrostatic problem to solve    =              generalized
     numerical solver adopted          =                       cg
     type of auxiliary density adopted =                     none
     numerical core for poisson        =                      fft
     type of pbc corrections           =                parabolic
     numerical core for corrections    =                      1da

     celldm(1)=  12.389316  celldm(2)=   0.000000  celldm(3)=   0.000000
     celldm(4)=   0.000000  celldm(5)=   0.000000  celldm(6)=   0.000000

     crystal axes: (cart. coord. in units of alat)
               a(1) = (   1.000000   0.000000   0.000000 )
               a(2) = (   0.000000   0.904766   0.000000 )
               a(3) = (   0.000000   0.000000   3.375918 )

     reciprocal axes: (cart. coord. in units 2 pi/alat)
               b(1) = (  1.000000  0.000000  0.000000 )
               b(2) = (  0.000000  1.105258  0.000000 )
               b(3) = (  0.000000  0.000000  0.296216 )

     PseudoPot. # 1 for O  read from file:
     /gpfs/group/ixd4/default/Simon/pseudopotentials/materialscloud/SSSP_1.3.0_PBE_efficiency/O.pbe-n-kjpaw_psl.0.1.UPF
     MD5 check sum: 0234752ac141de4415c5fc33072bef88
     Pseudo is Projector augmented-wave + core cor, Zval =  6.0
     Generated using "atomic" code by A. Dal Corso  v.5.0.99 svn rev. 10869
     Shape of augmentation charge: BESSEL
     Using radial grid of 1095 points,  4 beta functions with:
                l(1) =   0
                l(2) =   0
                l(3) =   1
                l(4) =   1
     Q(r) pseudized with 0 coefficients

     PseudoPot. # 2 for Ru read from file:
     /gpfs/group/ixd4/default/Simon/pseudopotentials/materialscloud/SSSP_1.3.0_PBE_efficiency/Ru_ONCV_PBE-1.0.oncvpsp.upf
     MD5 check sum: be037bb81c227cfb9b1461a9f099f4bd
     Pseudo is Norm-conserving, Zval = 16.0
     Generated using ONCVPSP code by D. R. Hamann
     Using radial grid of 1458 points,  6 beta functions with:
                l(1) =   0
                l(2) =   0
                l(3) =   1
                l(4) =   1
                l(5) =   2
                l(6) =   2

     PseudoPot. # 3 for H  read from file:
     /gpfs/group/ixd4/default/Simon/pseudopotentials/materialscloud/SSSP_1.3.0_PBE_efficiency/H.pbe-rrkjus_psl.1.0.0.UPF
     MD5 check sum: f52b6d4d1c606e5624b1dc7b2218f220
     Pseudo is Ultrasoft, Zval =  1.0
     Generated using "atomic" code by A. Dal Corso  v.5.1
     Using radial grid of  929 points,  2 beta functions with:
                l(1) =   0
                l(2) =   0
     Q(r) pseudized with 0 coefficients

     atomic species   valence    mass     pseudopotential
        O              6.00    15.99940     O ( 1.00)
        Ru            16.00   101.07000     Ru( 1.00)
        H              1.00     1.00794     H ( 1.00)

      4 Sym. Ops. (no inversion) found

   Cartesian axes

     site n.     atom                  positions (alat units)
         1           O   tau(   1) = (   0.0000000   0.4523832   0.8804697  )
         2           O   tau(   2) = (   0.5000000   0.4523832   0.8804697  )
         3           O   tau(   3) = (   0.0000000   0.0000000   0.9930802  )
         4           O   tau(   4) = (   0.5000000   0.0000000   0.9930802  )
         5           Ru  tau(   5) = (   0.2500000   0.0000000   1.1871684  )
         6           Ru  tau(   6) = (   0.7500000   0.0000000   1.1871684  )
         7           O   tau(   7) = (   0.2500000   0.2770530   1.1871684  )
         8           O   tau(   8) = (   0.7500000   0.2770530   1.1871684  )
         9           Ru  tau(   9) = (   0.0000000   0.4523832   1.1871684  )
        10           Ru  tau(  10) = (   0.5000000   0.4523832   1.1871684  )
        11           O   tau(  11) = (   0.2500000   0.6277133   1.1871684  )
        12           O   tau(  12) = (   0.7500000   0.6277133   1.1871684  )
        13           O   tau(  13) = (   0.0000000   0.0000000   1.3812600  )
        14           O   tau(  14) = (   0.5000000   0.0000000   1.3812600  )
        15           O   tau(  15) = (   0.0000000   0.4523832   1.4938705  )
        16           O   tau(  16) = (   0.5000000   0.4523832   1.4938705  )
        17           Ru  tau(  17) = (   0.0000000   0.0000000   1.6879622  )
        18           Ru  tau(  18) = (   0.5000000   0.0000000   1.6879622  )
        19           O   tau(  19) = (   0.2500000   0.1753301   1.6879622  )
        20           O   tau(  20) = (   0.7500000   0.1753301   1.6879622  )
        21           Ru  tau(  21) = (   0.2500000   0.4523832   1.6879622  )
        22           Ru  tau(  22) = (   0.7500000   0.4523832   1.6879622  )
        23           O   tau(  23) = (   0.2500000   0.7294371   1.6879622  )
        24           O   tau(  24) = (   0.7500000   0.7294371   1.6879622  )
        25           O   tau(  25) = (   0.0000000   0.4523832   1.8820504  )
        26           O   tau(  26) = (   0.5000000   0.4523832   1.8820504  )
        27           O   tau(  27) = (   0.0000000   0.0000000   1.9946609  )
        28           O   tau(  28) = (   0.5000000   0.0000000   1.9946609  )
        29           Ru  tau(  29) = (   0.2500000   0.0000000   2.1887525  )
        30           Ru  tau(  30) = (   0.7500000   0.0000000   2.1887525  )
        31           O   tau(  31) = (   0.2500000   0.2770530   2.1887525  )
        32           O   tau(  32) = (   0.7500000   0.2770530   2.1887525  )
        33           Ru  tau(  33) = (   0.0000000   0.4523832   2.1887525  )
        34           Ru  tau(  34) = (   0.5000000   0.4523832   2.1887525  )
        35           O   tau(  35) = (   0.2500000   0.6277133   2.1887525  )
        36           O   tau(  36) = (   0.7500000   0.6277133   2.1887525  )
        37           O   tau(  37) = (   0.0000000   0.0000000   2.3828441  )
        38           O   tau(  38) = (   0.5000000   0.0000000   2.3828441  )
        39           O   tau(  39) = (   0.0000000   0.4523832   2.4954513  )
        40           O   tau(  40) = (   0.5000000   0.4523832   2.4954513  )
        41           H   tau(  41) = (   0.1176350   0.4523832   0.7660733  )
        42           H   tau(  42) = (   0.1176350   0.4523832   2.6098442  )

     number of k points=     1  Marzari-Vanderbilt smearing, width (Ry)=  0.0300
                       cart. coord. in units 2pi/alat
        k(    1) = (   0.2500000   0.2763144   0.0000000), wk =   2.0000000

     Check: negative core charge=   -0.000001

     Initial potential from superposition of free atoms

     starting charge     361.9933, renormalised to     362.0000

     add environment contribution to local potential
     Polarization accuracy = 9.6E-12, # of iterations =  26

     negative rho (up, down):  2.780E-05 0.000E+00
     Starting wfcs are  234 randomized atomic wfcs
     Checking if some PAW data can be deallocated...

     Self-consistent Calculation

     iteration #  1     ecut=    50.00 Ry     beta= 0.70
     Davidson diagonalization with overlap
     ethr =  1.00E-02,  avg # of iterations =  2.0

     total energy              =   -3426.37304343 Ry
     estimated scf accuracy    <      12.65465130 Ry
     electrostatic embedding   =      -0.00168774 Ry
     cavitation energy         =       0.02056530 Ry
     PV energy                 =      -0.08469736 Ry
     correction to one-el term =     216.00457991 Ry

[...]

     negative rho (up, down):  3.536E-08 0.000E+00

[...]

     the potential shift due to the Gaussian-smeared nuclei is    -1.3319 ev

     End of self-consistent calculation

          k = 0.2500 0.2763 0.0000 ( 34692 PWs)   bands (ev):

   -79.2751 -79.2634 -79.2615 -79.2498 -79.2481 -79.2342 -79.0869 -79.0731
   -78.9395 -78.9178 -78.8243 -78.8199 -49.6985 -49.6849 -49.6814 -49.6677
   -49.4352 -49.4271 -49.4065 -49.3926 -49.2471 -49.2332 -49.2327 -49.2189
   -49.0843 -49.0707 -49.0683 -49.0632 -49.0548 -49.0497 -49.0348 -49.0209
   -48.9956 -48.9822 -48.9562 -48.9518 -48.9343 -48.9205 -48.8754 -48.8516
   -48.8377 -48.7945 -48.7735 -48.7274 -48.7000 -48.6997 -48.6409 -48.6277
   -25.4839 -25.3279 -25.2864 -25.0782 -24.9706 -24.9524 -24.3080 -24.3047
[...]
     atom   41 type  3   force =     2.69694139    0.00000002  -16.87750994
     atom   42 type  3   force =     2.69704447    0.00000002   16.87755155
     The local contribution  to forces
     atom    1 type  1   force =     1.12629485    0.00000000   97.00791691
     atom    2 type  1   force =    -0.01454345    0.00000000  101.09639269
     atom    3 type  1   force =     0.02672985    0.00000000   94.01015427
     atom    4 type  1   force =    -0.03297990   -0.00000000   94.07058431
     atom    5 type  2   force =    -0.18445018   -0.00000000  178.88435809
     atom    6 type  2   force =     0.17331815    0.00000000  178.86413792
     atom    7 type  1   force =    -0.36036754    0.70379802   62.97310949
     atom    8 type  1   force =     0.30015874    0.74325972   62.94221387
     atom    9 type  2   force =    -0.07682380    0.00000000  170.22671177
     atom   10 type  2   force =     0.16112383    0.00000000  174.97006484
     atom   11 type  1   force =    -0.36036754   -0.70379802   62.97310949
     atom   12 type  1   force =     0.30015874   -0.74325972   62.94221387
     atom   13 type  1   force =     0.00677138   -0.00000000   39.15410537
     atom   14 type  1   force =     0.01886075   -0.00000000   39.13060943
     atom   15 type  1   force =     0.07034834    0.00000000   25.08705469
     atom   16 type  1   force =     0.06896905    0.00000000   27.02674821
     atom   17 type  2   force =     0.17066553    0.00000000   -0.00589948
     atom   18 type  2   force =     0.14406470    0.00000000   -0.00590858
     atom   19 type  1   force =    -0.09865916   -0.26901611   -0.00248217
     atom   20 type  1   force =     0.06445638   -0.26047462   -0.00248233
     atom   21 type  2   force =    -1.38013517    0.00000000   -0.00606684
     atom   22 type  2   force =     0.60893856    0.00000000   -0.00606833
     atom   23 type  1   force =    -0.09866113    0.26867120   -0.00248217
     atom   24 type  1   force =     0.06445415    0.26012989   -0.00248233
     atom   25 type  1   force =     0.07033805    0.00000000  -25.08881994
     atom   26 type  1   force =     0.06896415    0.00000000  -27.02853730
     atom   27 type  1   force =     0.00677110   -0.00000000  -39.15586721
     atom   28 type  1   force =     0.01886039    0.00000000  -39.13236864
     atom   29 type  2   force =    -0.18444328    0.00000000 -178.89050854
     atom   30 type  2   force =     0.17331165    0.00000000 -178.87029028
     atom   31 type  1   force =    -0.36034263    0.70378002  -62.97557743
     atom   32 type  1   force =     0.30013687    0.74324351  -62.94468423
     atom   33 type  2   force =    -0.07683805    0.00000000 -170.23255704
     atom   34 type  2   force =     0.16111621    0.00000000 -174.97582755
     atom   35 type  1   force =    -0.36034263   -0.70378002  -62.97557743
     atom   36 type  1   force =     0.30013687   -0.74324351  -62.94468423
     atom   37 type  1   force =     0.02672848   -0.00000000  -94.01407112
     atom   38 type  1   force =    -0.03297879    0.00000000  -94.07450333
     atom   39 type  1   force =     1.12633060    0.00000000  -97.00944711
     atom   40 type  1   force =    -0.01454546    0.00000000 -101.09776316
     atom   41 type  3   force =    -2.63518442    0.00000000   16.84982139
     atom   42 type  3   force =    -2.63518442    0.00000000  -16.84982139
     The core correction contribution to forces
     atom    1 type  1   force =    -0.01781441    0.00000000   -0.00257909
     atom    2 type  1   force =     0.00022231   -0.00000000   -0.01128978
     atom    3 type  1   force =    -0.00006614    0.00000000   -0.01088883
     atom    4 type  1   force =     0.00004060   -0.00000000   -0.01093507
     atom    5 type  2   force =     0.00000000    0.00000000    0.00000000
     atom    6 type  2   force =     0.00000000    0.00000000    0.00000000
     atom    7 type  1   force =    -0.00057236    0.00031212    0.00125335
     atom    8 type  1   force =     0.00077929    0.00031429    0.00097656
     atom    9 type  2   force =     0.00000000    0.00000000    0.00000000
     atom   10 type  2   force =     0.00000000    0.00000000    0.00000000
     atom   11 type  1   force =    -0.00057236   -0.00031212    0.00125335
     atom   12 type  1   force =     0.00077929   -0.00031429    0.00097656
     atom   13 type  1   force =     0.00003092   -0.00000000   -0.00065388
     atom   14 type  1   force =    -0.00000307   -0.00000000   -0.00051494
     atom   15 type  1   force =     0.00016304   -0.00000000    0.00019624
     atom   16 type  1   force =     0.00011136   -0.00000000   -0.00272562
     atom   17 type  2   force =     0.00000000    0.00000000    0.00000000
     atom   18 type  2   force =     0.00000000    0.00000000    0.00000000
     atom   19 type  1   force =    -0.00021425   -0.00026418   -0.00000212
     atom   20 type  1   force =    -0.00007236   -0.00023450   -0.00000213
     atom   21 type  2   force =     0.00000000    0.00000000    0.00000000
     atom   22 type  2   force =     0.00000000    0.00000000    0.00000000
     atom   23 type  1   force =    -0.00021426    0.00026369   -0.00000212
     atom   24 type  1   force =    -0.00007237    0.00023401   -0.00000213
     atom   25 type  1   force =     0.00016300   -0.00000000   -0.00019836
     atom   26 type  1   force =     0.00011135   -0.00000000    0.00272360
     atom   27 type  1   force =     0.00003092    0.00000000    0.00065148
     atom   28 type  1   force =    -0.00000307    0.00000000    0.00051250
     atom   29 type  2   force =     0.00000000    0.00000000    0.00000000
     atom   30 type  2   force =     0.00000000    0.00000000    0.00000000
     atom   31 type  1   force =    -0.00057231    0.00031194   -0.00125504
     atom   32 type  1   force =     0.00077929    0.00031416   -0.00097826
     atom   33 type  2   force =     0.00000000    0.00000000    0.00000000
     atom   34 type  2   force =     0.00000000    0.00000000    0.00000000
     atom   35 type  1   force =    -0.00057231   -0.00031194   -0.00125504
     atom   36 type  1   force =     0.00077929   -0.00031416   -0.00097826
     atom   37 type  1   force =    -0.00006614    0.00000000    0.01088403
     atom   38 type  1   force =     0.00004059   -0.00000000    0.01093037
     atom   39 type  1   force =    -0.01781515    0.00000000    0.00257666
     atom   40 type  1   force =     0.00022235    0.00000000    0.01128815
     atom   41 type  3   force =     0.00000000    0.00000000    0.00000000
     atom   42 type  3   force =     0.00000000    0.00000000    0.00000000
     The Hubbard contrib.    to forces
     atom    1 type  1   force =     0.00000000    0.00000000    0.00000000
     atom    2 type  1   force =     0.00000000    0.00000000    0.00000000
     atom    3 type  1   force =     0.00000000    0.00000000    0.00000000
     atom    4 type  1   force =     0.00000000    0.00000000    0.00000000
     atom    5 type  2   force =     0.00000000    0.00000000    0.00000000
     atom    6 type  2   force =     0.00000000    0.00000000    0.00000000
     atom    7 type  1   force =     0.00000000    0.00000000    0.00000000
     atom    8 type  1   force =     0.00000000    0.00000000    0.00000000
     atom    9 type  2   force =     0.00000000    0.00000000    0.00000000
     atom   10 type  2   force =     0.00000000    0.00000000    0.00000000
     atom   11 type  1   force =     0.00000000    0.00000000    0.00000000
     atom   12 type  1   force =     0.00000000    0.00000000    0.00000000
     atom   13 type  1   force =     0.00000000    0.00000000    0.00000000
     atom   14 type  1   force =     0.00000000    0.00000000    0.00000000
     atom   15 type  1   force =     0.00000000    0.00000000    0.00000000
     atom   16 type  1   force =     0.00000000    0.00000000    0.00000000
     atom   17 type  2   force =     0.00000000    0.00000000    0.00000000
     atom   18 type  2   force =     0.00000000    0.00000000    0.00000000
     atom   19 type  1   force =     0.00000000    0.00000000    0.00000000
     atom   20 type  1   force =     0.00000000    0.00000000    0.00000000
     atom   21 type  2   force =     0.00000000    0.00000000    0.00000000
     atom   22 type  2   force =     0.00000000    0.00000000    0.00000000
     atom   23 type  1   force =     0.00000000    0.00000000    0.00000000
     atom   24 type  1   force =     0.00000000    0.00000000    0.00000000
     atom   25 type  1   force =     0.00000000    0.00000000    0.00000000
     atom   26 type  1   force =     0.00000000    0.00000000    0.00000000
     atom   27 type  1   force =     0.00000000    0.00000000    0.00000000
     atom   28 type  1   force =     0.00000000    0.00000000    0.00000000
     atom   29 type  2   force =     0.00000000    0.00000000    0.00000000
     atom   30 type  2   force =     0.00000000    0.00000000    0.00000000
     atom   31 type  1   force =     0.00000000    0.00000000    0.00000000
     atom   32 type  1   force =     0.00000000    0.00000000    0.00000000
     atom   33 type  2   force =     0.00000000    0.00000000    0.00000000
     atom   34 type  2   force =     0.00000000    0.00000000    0.00000000
     atom   35 type  1   force =     0.00000000    0.00000000    0.00000000
     atom   36 type  1   force =     0.00000000    0.00000000    0.00000000
     atom   37 type  1   force =     0.00000000    0.00000000    0.00000000
     atom   38 type  1   force =     0.00000000    0.00000000    0.00000000
     atom   39 type  1   force =     0.00000000    0.00000000    0.00000000
     atom   40 type  1   force =     0.00000000    0.00000000    0.00000000
     atom   41 type  3   force =     0.00000000    0.00000000    0.00000000
     atom   42 type  3   force =     0.00000000    0.00000000    0.00000000
     The SCF correction term to forces
     atom    1 type  1   force =     0.00000081   -0.00000000   -0.00000089
     atom    2 type  1   force =    -0.00000073    0.00000000   -0.00000073
     atom    3 type  1   force =     0.00000033   -0.00000000   -0.00000073
     atom    4 type  1   force =    -0.00000035   -0.00000000   -0.00000059
     atom    5 type  2   force =    -0.00000053   -0.00000000   -0.00000129
     atom    6 type  2   force =     0.00000075   -0.00000000   -0.00000090
     atom    7 type  1   force =    -0.00000012    0.00000000   -0.00000051
     atom    8 type  1   force =     0.00000014   -0.00000004   -0.00000016
     atom    9 type  2   force =     0.00000095    0.00000000   -0.00000137
     atom   10 type  2   force =    -0.00000103    0.00000000   -0.00000090
     atom   11 type  1   force =    -0.00000012   -0.00000000   -0.00000051
     atom   12 type  1   force =     0.00000014    0.00000004   -0.00000016
     atom   13 type  1   force =     0.00000022   -0.00000000   -0.00000013
     atom   14 type  1   force =    -0.00000023   -0.00000000   -0.00000002
     atom   15 type  1   force =     0.00000015    0.00000000   -0.00000025
     atom   16 type  1   force =    -0.00000016    0.00000000   -0.00000029
     atom   17 type  2   force =     0.00000004   -0.00000000   -0.00000000
     atom   18 type  2   force =    -0.00000053   -0.00000000   -0.00000001
     atom   19 type  1   force =    -0.00000001   -0.00000023   -0.00000000
     atom   20 type  1   force =     0.00000012   -0.00000030   -0.00000000
     atom   21 type  2   force =     0.00000002    0.00000000   -0.00000001
     atom   22 type  2   force =     0.00000037    0.00000000   -0.00000001
     atom   23 type  1   force =    -0.00000001    0.00000023   -0.00000000
     atom   24 type  1   force =     0.00000012    0.00000030   -0.00000000
     atom   25 type  1   force =     0.00000015    0.00000000    0.00000025
     atom   26 type  1   force =    -0.00000016    0.00000000    0.00000029
     atom   27 type  1   force =     0.00000022   -0.00000000    0.00000012
     atom   28 type  1   force =    -0.00000023   -0.00000000    0.00000002
     atom   29 type  2   force =    -0.00000054   -0.00000000    0.00000127
     atom   30 type  2   force =     0.00000076   -0.00000000    0.00000088
     atom   31 type  1   force =    -0.00000013    0.00000000    0.00000050
     atom   32 type  1   force =     0.00000014   -0.00000004    0.00000016
     atom   33 type  2   force =     0.00000094    0.00000000    0.00000136
     atom   34 type  2   force =    -0.00000102    0.00000000    0.00000089
     atom   35 type  1   force =    -0.00000013   -0.00000000    0.00000050
     atom   36 type  1   force =     0.00000014    0.00000004    0.00000016
     atom   37 type  1   force =     0.00000032   -0.00000000    0.00000073
     atom   38 type  1   force =    -0.00000034   -0.00000000    0.00000059
     atom   39 type  1   force =     0.00000081   -0.00000000    0.00000089
     atom   40 type  1   force =    -0.00000073   -0.00000000    0.00000073
     atom   41 type  3   force =    -0.00000000   -0.00000000   -0.00000006
     atom   42 type  3   force =    -0.00000000   -0.00000000    0.00000006

     Total force =     0.000295     Total SCF correction =     0.000005
     Energy error            =      4.2E-07 Ry
     Gradient error          =      9.0E-05 Ry/Bohr

     bfgs converged in  43 scf cycles and  41 bfgs steps
     (criteria: energy <  1.0E-04 Ry, force <  1.0E-04 Ry/Bohr)

     End of BFGS Geometry Optimization

     Final energy             =   -3430.0209618997 Ry

     File /storage/home/mgm6007/ixd4/Maria/Strain1_Files/RuO2-110-0-0/RuO2-110-0-0.bfgs deleted, as requested
Begin final coordinates

ATOMIC_POSITIONS (crystal)
O            -0.0103507053        0.5000000000        0.2729773235
O             0.4993537324        0.5000000000        0.2750958525
O             0.0000086650        0.0000000000        0.3066306930
O             0.4996726987        0.0000000000        0.3063533155
Ru            0.2501673279        0.0000000000        0.3536900296
Ru            0.7495332471        0.0000000000        0.3537495523
O             0.2480900339        0.3134152796        0.3596513824
O             0.7515543240        0.3131997776        0.3596570599
Ru           -0.0001551639        0.5000000000        0.3591173934
Ru            0.5004191610        0.5000000000        0.3525354569
O             0.2480900339        0.6865847204        0.3596513824
O             0.7515543240        0.6868002224        0.3596570599
O            -0.0000776586        0.0000000000        0.4115609932
O             0.4997725934        0.0000000000        0.4115276142
O             0.0047023155        0.5000000000        0.4466805439
O             0.5041522199        0.5000000000        0.4441852364
Ru           -0.0000158302        0.0000000000        0.5000010000
Ru            0.4999514717        0.0000000000        0.5000010000
O             0.2494602908        0.1863010370        0.5000010000
O             0.7489390199        0.1863473590        0.5000010000
Ru            0.2559891254        0.5000000000        0.5000010000
Ru            0.7510831710        0.5000000000        0.5000010000
O             0.2494602908        0.8136999630        0.5000010000
O             0.7489390199        0.8136536410        0.5000010000
O             0.0047023155        0.5000000000        0.5533204561
O             0.5041522199        0.5000000000        0.5558157636
O            -0.0000776586        0.0000000000        0.5884400068
O             0.4997725934        0.0000000000        0.5884733858
Ru            0.2501673279        0.0000000000        0.6463109704
Ru            0.7495332471        0.0000000000        0.6462514477
O             0.2480900339        0.3134152796        0.6403496176
O             0.7515543240        0.3131997776        0.6403439401
Ru           -0.0001551639        0.5000000000        0.6408836066
Ru            0.5004191610        0.5000000000        0.6474655431
O             0.2480900339        0.6865847204        0.6403496176
O             0.7515543240        0.6868002224        0.6403439401
O             0.0000086650        0.0000000000        0.6933713070
O             0.4996726987        0.0000000000        0.6936486845
O            -0.0103507053        0.5000000000        0.7270236765
O             0.4993537324        0.5000000000        0.7249051475
H             0.1192445713        0.5000000000        0.2508681346
H             0.1192445713        0.5000000000        0.7491318654
End final coordinates

     Writing all to output data dir /storage/home/mgm6007/ixd4/Maria/Strain1_Files/RuO2-110-0-0/RuO2-110-0-0.save/

     General routines

     Parallel routines

     Environ routines

   This run was terminated on:  13:52:14  16Jul2023

   JOB DONE.