     Program PWSCF v.7.2 starts on 27Jul2023 at 11:56:54
        Git branch: heads/qe-7.2
        Last git commit: b4c5e8deeb7d1863e7553a87b45f8d22c21926a5
        Last git commit date: Mon Mar 27 16:12:09 2023 +0000
        Last git commit subject: Merge branch 'merge_fix_hubbard' into 'develop'

     Reading input from RuO2-110-0-01234.in

     Current dimensions of program PWSCF are:
     Max number of different atomic species (ntypx) = 10
     Max number of k-points (npk) =  40000
     Max angular momentum in pseudopotentials (lmaxx) =  4

     Reading input from environ.in:
     * Environ restarting
     * setting up water environment
     * using electronic solvent mode
     * setting boundary derivatives method to SCCS default

     File /storage/home/mgm6007/ixd4/Maria/Strain2_Files/RuO2-110-0-01234/RuO2-110-0-01234.update deleted, as requested

     File /storage/home/mgm6007/ixd4/Maria/Strain2_Files/RuO2-110-0-01234/RuO2-110-0-01234.bfgs deleted, as requested
     file O.pbe-n-kjpaw_psl.0.1.UPF: wavefunction(s)  2P renormalized
     Message from routine setup:
     using ibrav=0 with symmetry is DISCOURAGED, use correct ibrav instead

     R & G space division:  proc/nbgrp/npool/nimage =      20
     Subspace diagonalization in iterative solution of the eigenvalue problem:
     one sub-group per band group will be used

     Using Slab Decomposition

     bravais-lattice index     =            0
     lattice parameter (alat)  =      12.2467  a.u.
     unit-cell volume          =    5883.2137 (a.u.)^3
     number of atoms/cell      =           50
     number of atomic types    =            3
     number of electrons       =       370.00
     number of Kohn-Sham states=          222
     kinetic-energy cutoff     =      50.0000  Ry
     charge density cutoff     =     500.0000  Ry
     scf convergence threshold =      1.0E-09
     mixing beta               =       0.7000
     number of iterations used =            8  local-TF  mixing
     energy convergence thresh.=      1.0E-04
     force convergence thresh. =      1.0E-04
     Exchange-correlation= PBE
                           (   1   4   3   4   0   0   0)
     nstep                     =          200

                                  Environ Setup Summary

          O. Andreussi, I. Dabo and N. Marzari, J. Chem. Phys. 136, 064102 (2012)

     in publications or presentations arising from this work.

     Parameters

     compensation onset threshold      =               0.1000E+00
     static permittivity               =                    78.30
     surface tension in input (dyn/cm) =                    47.90
     surface tension in internal units =               0.6153E-04
     external pressure in input (GPa)  =                    -0.36
     external pressure in inter. units =              -0.2447E-04

     Solvent Boundary

     solvent mode                      =               electronic
     derivatives method                =                    chain
     numerical core for derivatives    =                      fft
     switching function adopted        =                     SCCS
     density limit for vacuum region   =               0.5000E-02
     density limit for bulk solvent    =               0.1000E-03

     Electrostatic Setup

     electrostatic problem to solve    =              generalized
     numerical solver adopted          =                       cg
     type of auxiliary density adopted =                     none
     numerical core for poisson        =                      fft
     type of pbc corrections           =                parabolic
     numerical core for corrections    =                      1da

     celldm(1)=  12.246684  celldm(2)=   0.000000  celldm(3)=   0.000000
     celldm(4)=   0.000000  celldm(5)=   0.000000  celldm(6)=   0.000000

     crystal axes: (cart. coord. in units of alat)
               a(1) = (   1.000000   0.000000   0.000000 )
               a(2) = (   0.000000   0.937861   0.000000 )
               a(3) = (   0.000000   0.000000   3.415235 )

     reciprocal axes: (cart. coord. in units 2 pi/alat)
               b(1) = (  1.000000  0.000000  0.000000 )
               b(2) = (  0.000000  1.066256  0.000000 )
               b(3) = (  0.000000  0.000000  0.292806 )

     PseudoPot. # 1 for O  read from file:
     /gpfs/group/ixd4/default/Simon/pseudopotentials/materialscloud/SSSP_1.3.0_PBE_efficiency/O.pbe-n-kjpaw_psl.0.1.UPF
     MD5 check sum: 0234752ac141de4415c5fc33072bef88
     Pseudo is Projector augmented-wave + core cor, Zval =  6.0
     Generated using "atomic" code by A. Dal Corso  v.5.0.99 svn rev. 10869
     Shape of augmentation charge: BESSEL
     Using radial grid of 1095 points,  4 beta functions with:
                l(1) =   0
                l(2) =   0
                l(3) =   1
                l(4) =   1
     Q(r) pseudized with 0 coefficients

     PseudoPot. # 2 for Ru read from file:
     /gpfs/group/ixd4/default/Simon/pseudopotentials/materialscloud/SSSP_1.3.0_PBE_efficiency/Ru_ONCV_PBE-1.0.oncvpsp.upf
     MD5 check sum: be037bb81c227cfb9b1461a9f099f4bd
     Pseudo is Norm-conserving, Zval = 16.0
     Generated using ONCVPSP code by D. R. Hamann
     Using radial grid of 1458 points,  6 beta functions with:
                l(1) =   0
                l(2) =   0
                l(3) =   1
                l(4) =   1
                l(5) =   2
                l(6) =   2

     PseudoPot. # 3 for H  read from file:
     /gpfs/group/ixd4/default/Simon/pseudopotentials/materialscloud/SSSP_1.3.0_PBE_efficiency/H.pbe-rrkjus_psl.1.0.0.UPF
     MD5 check sum: f52b6d4d1c606e5624b1dc7b2218f220
     Pseudo is Ultrasoft, Zval =  1.0
     Generated using "atomic" code by A. Dal Corso  v.5.1
     Using radial grid of  929 points,  2 beta functions with:
                l(1) =   0
                l(2) =   0
     Q(r) pseudized with 0 coefficients

     atomic species   valence    mass     pseudopotential
        O              6.00    15.99940     O ( 1.00)
        Ru            16.00   101.07000     Ru( 1.00)
        H              1.00     1.00794     H ( 1.00)

      2 Sym. Ops. (no inversion) found

   Cartesian axes

     site n.     atom                  positions (alat units)
         1           O   tau(   1) = (   0.0098178   0.3902568   0.9040446  )
         2           O   tau(   2) = (   0.4896080   0.4061587   0.9101941  )
         3           O   tau(   3) = (  -0.0054364   0.0120166   1.0127984  )
         4           O   tau(   4) = (   0.4949513   0.0128207   1.0203832  )
         5           Ru  tau(   5) = (   0.2476650  -0.0053095   1.2227745  )
         6           Ru  tau(   6) = (   0.7417419  -0.0052516   1.2227225  )
         7           O   tau(   7) = (   0.2505952   0.2875582   1.2335319  )
         8           O   tau(   8) = (   0.7508705   0.2881440   1.2336350  )
         9           Ru  tau(   9) = (   0.0004538   0.4627695   1.2301264  )
        10           Ru  tau(  10) = (   0.4999161   0.4642189   1.2178286  )
        11           O   tau(  11) = (   0.2493846   0.6402423   1.2002182  )
        12           O   tau(  12) = (   0.7530138   0.6403668   1.1996646  )
        13           O   tau(  13) = (  -0.0039618  -0.0068109   1.4034960  )
        14           O   tau(  14) = (   0.4962099  -0.0045380   1.4048058  )
        15           O   tau(  15) = (   0.0004667   0.4827357   1.5257899  )
        16           O   tau(  16) = (   0.5006833   0.4824629   1.5176790  )
        17           Ru  tau(  17) = (  -0.0027384   0.0100558   1.7076210  )
        18           Ru  tau(  18) = (   0.4971587   0.0100641   1.7076210  )
        19           O   tau(  19) = (   0.2464139   0.1869606   1.7076210  )
        20           O   tau(  20) = (   0.7469192   0.1870589   1.7076210  )
        21           Ru  tau(  21) = (   0.2536609   0.4802247   1.7076210  )
        22           Ru  tau(  22) = (   0.7495754   0.4803494   1.7076210  )
        23           O   tau(  23) = (   0.2473703   0.7725485   1.7076210  )
        24           O   tau(  24) = (   0.7463092   0.7724759   1.7076210  )
        25           O   tau(  25) = (   0.0004667   0.4827357   1.8894487  )
        26           O   tau(  26) = (   0.5006833   0.4824629   1.8975596  )
        27           O   tau(  27) = (  -0.0039618  -0.0068109   2.0117426  )
        28           O   tau(  28) = (   0.4962099  -0.0045380   2.0104329  )
        29           Ru  tau(  29) = (   0.2476650  -0.0053095   2.1924641  )
        30           Ru  tau(  30) = (   0.7417419  -0.0052516   2.1925161  )
        31           O   tau(  31) = (   0.2505952   0.2875582   2.1817067  )
        32           O   tau(  32) = (   0.7508705   0.2881440   2.1816037  )
        33           Ru  tau(  33) = (   0.0004538   0.4627695   2.1851122  )
        34           Ru  tau(  34) = (   0.4999161   0.4642189   2.1974100  )
        35           O   tau(  35) = (   0.2493846   0.6402423   2.2150204  )
        36           O   tau(  36) = (   0.7530138   0.6403668   2.2155741  )
        37           O   tau(  37) = (  -0.0054364   0.0120166   2.4024437  )
        38           O   tau(  38) = (   0.4949513   0.0128207   2.3948589  )
        39           O   tau(  39) = (   0.0098178   0.3902568   2.5111940  )
        40           O   tau(  40) = (   0.4896080   0.4061587   2.5050446  )
        41           H   tau(  41) = (   0.1517821   0.4115782   0.8540037  )
        42           H   tau(  42) = (   0.1517821   0.4115782   2.5612315  )
        43           H   tau(  43) = (   0.6253980   0.4282664   0.8492337  )
        44           H   tau(  44) = (   0.6253980   0.4282664   2.5660015  )
        45           H   tau(  45) = (   0.0013918   0.2308593   0.9253571  )
        46           H   tau(  46) = (   0.0013918   0.2308593   2.4898781  )
        47           H   tau(  47) = (   0.4925173   0.1543677   0.9517948  )
        48           H   tau(  48) = (   0.4925173   0.1543677   2.4634404  )
        49           H   tau(  49) = (  -0.0041337   0.8561555   0.8947043  )
        50           H   tau(  50) = (  -0.0041337   0.8561555   2.5205310  )

     number of k points=     2  Marzari-Vanderbilt smearing, width (Ry)=  0.0300
                       cart. coord. in units 2pi/alat
        k(    1) = (   0.2500000   0.2665641   0.0000000), wk =   1.0000000
        k(    2) = (  -0.2500000   0.2665641   0.0000000), wk =   1.0000000

     Check: negative core charge=   -0.000001

     Initial potential from superposition of free atoms

     starting charge     369.9932, renormalised to     370.0000

     add environment contribution to local potential
     Polarization accuracy = 5.1E-12, # of iterations =  24

     negative rho (up, down):  2.586E-05 0.000E+00
     Starting wfcs are  242 randomized atomic wfcs
     Checking if some PAW data can be deallocated...

     Self-consistent Calculation

     iteration #  1     ecut=    50.00 Ry     beta= 0.70
     Davidson diagonalization with overlap
     ethr =  1.00E-02,  avg # of iterations =  3.0

     total energy              =   -3438.37924808 Ry
     estimated scf accuracy    <       8.29912038 Ry
     electrostatic embedding   =      -0.00187075 Ry
[...]
     atom   37 type  1   force =     0.47964038    0.72380220  -90.75171702
     atom   38 type  1   force =    -0.52074967    2.55580347  -91.58371554
     atom   39 type  1   force =     2.36697805   -1.88022787  -91.84666770
     atom   40 type  1   force =    -0.60135335   -0.27380444  -92.72285995
     atom   41 type  3   force =    -2.22015903   -0.46887043   15.48266449
     atom   42 type  3   force =    -2.22015903   -0.46887043  -15.48266449
     atom   43 type  3   force =    -2.51061618   -1.47338379   16.40415757
     atom   44 type  3   force =    -2.51061618   -1.47338379  -16.40415757
     atom   45 type  3   force =     0.75028581    2.66719814   15.26903802
     atom   46 type  3   force =     0.75028581    2.66719814  -15.26903802
     atom   47 type  3   force =    -0.16008683   -1.61743319   16.48223627
     atom   48 type  3   force =    -0.16008683   -1.61743319  -16.48223627
     atom   49 type  3   force =     0.07741023    2.35528802   17.31365456
     atom   50 type  3   force =     0.07741023    2.35528802  -17.31365456
     The core correction contribution to forces
     atom    1 type  1   force =    -0.01136049    0.01284605   -0.00425323
     atom    2 type  1   force =    -0.01345212   -0.00721304    0.00247992
     atom    3 type  1   force =    -0.00008560    0.01329136    0.00443389
     atom    4 type  1   force =     0.00012361   -0.01306987   -0.00245560
     atom    5 type  2   force =     0.00000000    0.00000000    0.00000000
     atom    6 type  2   force =     0.00000000    0.00000000    0.00000000
     atom    7 type  1   force =     0.00016743    0.00015010    0.00139016
     atom    8 type  1   force =     0.00009023    0.00053925    0.00066216
     atom    9 type  2   force =     0.00000000    0.00000000    0.00000000
     atom   10 type  2   force =     0.00000000    0.00000000    0.00000000
     atom   11 type  1   force =     0.00019000   -0.00016526   -0.00072644
     atom   12 type  1   force =     0.00012143   -0.00063228   -0.00100500
     atom   13 type  1   force =    -0.00008337   -0.00074216   -0.00004105
     atom   14 type  1   force =     0.00006016   -0.00027483    0.00054924
     atom   15 type  1   force =     0.00012274    0.00064753    0.00200445
     atom   16 type  1   force =    -0.00003000    0.00061596    0.00019117
     atom   17 type  2   force =     0.00000000    0.00000000    0.00000000
     atom   18 type  2   force =     0.00000000    0.00000000    0.00000000
     atom   19 type  1   force =    -0.00015273   -0.00027690   -0.00000207
     atom   20 type  1   force =     0.00000417   -0.00021757   -0.00000205
     atom   21 type  2   force =     0.00000000    0.00000000    0.00000000
     atom   22 type  2   force =     0.00000000    0.00000000    0.00000000
     atom   23 type  1   force =    -0.00016552    0.00035427   -0.00000194
     atom   24 type  1   force =    -0.00001288    0.00034468   -0.00000191
     atom   25 type  1   force =     0.00012275    0.00064763   -0.00200705
     atom   26 type  1   force =    -0.00003002    0.00061606   -0.00019351
     atom   27 type  1   force =    -0.00008337   -0.00074234    0.00003877
     atom   28 type  1   force =     0.00006016   -0.00027498   -0.00055154
     atom   29 type  2   force =     0.00000000    0.00000000    0.00000000
     atom   30 type  2   force =     0.00000000    0.00000000    0.00000000
     atom   31 type  1   force =     0.00016745    0.00015013   -0.00139214
     atom   32 type  1   force =     0.00009019    0.00053934   -0.00066421
     atom   33 type  2   force =     0.00000000    0.00000000    0.00000000
     atom   34 type  2   force =     0.00000000    0.00000000    0.00000000
     atom   35 type  1   force =     0.00019006   -0.00016531    0.00072436
     atom   36 type  1   force =     0.00012140   -0.00063236    0.00100286
     atom   37 type  1   force =    -0.00008560    0.01329353   -0.00443848
     atom   38 type  1   force =     0.00012361   -0.01307169    0.00245187
     atom   39 type  1   force =    -0.01136111    0.01284637    0.00425220
     atom   40 type  1   force =    -0.01345281   -0.00721332   -0.00248260
     atom   41 type  3   force =     0.00000000    0.00000000    0.00000000
     atom   42 type  3   force =     0.00000000    0.00000000    0.00000000
     atom   43 type  3   force =     0.00000000    0.00000000    0.00000000
     atom   44 type  3   force =     0.00000000    0.00000000    0.00000000
     atom   45 type  3   force =     0.00000000    0.00000000    0.00000000
     atom   46 type  3   force =     0.00000000    0.00000000    0.00000000
     atom   47 type  3   force =     0.00000000    0.00000000    0.00000000
     atom   48 type  3   force =     0.00000000    0.00000000    0.00000000
     atom   49 type  3   force =     0.00000000    0.00000000    0.00000000
     atom   50 type  3   force =     0.00000000    0.00000000    0.00000000
     The Hubbard contrib.    to forces
     atom    1 type  1   force =     0.00000000    0.00000000    0.00000000
     atom    2 type  1   force =     0.00000000    0.00000000    0.00000000
     atom    3 type  1   force =     0.00000000    0.00000000    0.00000000
     atom    4 type  1   force =     0.00000000    0.00000000    0.00000000
     atom    5 type  2   force =     0.00000000    0.00000000    0.00000000
     atom    6 type  2   force =     0.00000000    0.00000000    0.00000000
     atom    7 type  1   force =     0.00000000    0.00000000    0.00000000
     atom    8 type  1   force =     0.00000000    0.00000000    0.00000000
     atom    9 type  2   force =     0.00000000    0.00000000    0.00000000
     atom   10 type  2   force =     0.00000000    0.00000000    0.00000000
     atom   11 type  1   force =     0.00000000    0.00000000    0.00000000
     atom   12 type  1   force =     0.00000000    0.00000000    0.00000000
     atom   13 type  1   force =     0.00000000    0.00000000    0.00000000
     atom   14 type  1   force =     0.00000000    0.00000000    0.00000000
     atom   15 type  1   force =     0.00000000    0.00000000    0.00000000
     atom   16 type  1   force =     0.00000000    0.00000000    0.00000000
     atom   17 type  2   force =     0.00000000    0.00000000    0.00000000
     atom   18 type  2   force =     0.00000000    0.00000000    0.00000000
     atom   19 type  1   force =     0.00000000    0.00000000    0.00000000
     atom   20 type  1   force =     0.00000000    0.00000000    0.00000000
     atom   21 type  2   force =     0.00000000    0.00000000    0.00000000
     atom   22 type  2   force =     0.00000000    0.00000000    0.00000000
     atom   23 type  1   force =     0.00000000    0.00000000    0.00000000
     atom   24 type  1   force =     0.00000000    0.00000000    0.00000000
     atom   25 type  1   force =     0.00000000    0.00000000    0.00000000
     atom   26 type  1   force =     0.00000000    0.00000000    0.00000000
     atom   27 type  1   force =     0.00000000    0.00000000    0.00000000
     atom   28 type  1   force =     0.00000000    0.00000000    0.00000000
     atom   29 type  2   force =     0.00000000    0.00000000    0.00000000
     atom   30 type  2   force =     0.00000000    0.00000000    0.00000000
     atom   31 type  1   force =     0.00000000    0.00000000    0.00000000
     atom   32 type  1   force =     0.00000000    0.00000000    0.00000000
     atom   33 type  2   force =     0.00000000    0.00000000    0.00000000
     atom   34 type  2   force =     0.00000000    0.00000000    0.00000000
     atom   35 type  1   force =     0.00000000    0.00000000    0.00000000
     atom   36 type  1   force =     0.00000000    0.00000000    0.00000000
     atom   37 type  1   force =     0.00000000    0.00000000    0.00000000
     atom   38 type  1   force =     0.00000000    0.00000000    0.00000000
     atom   39 type  1   force =     0.00000000    0.00000000    0.00000000
     atom   40 type  1   force =     0.00000000    0.00000000    0.00000000
     atom   41 type  3   force =     0.00000000    0.00000000    0.00000000
     atom   42 type  3   force =     0.00000000    0.00000000    0.00000000
     atom   43 type  3   force =     0.00000000    0.00000000    0.00000000
     atom   44 type  3   force =     0.00000000    0.00000000    0.00000000
     atom   45 type  3   force =     0.00000000    0.00000000    0.00000000
     atom   46 type  3   force =     0.00000000    0.00000000    0.00000000
     atom   47 type  3   force =     0.00000000    0.00000000    0.00000000
     atom   48 type  3   force =     0.00000000    0.00000000    0.00000000
     atom   49 type  3   force =     0.00000000    0.00000000    0.00000000
     atom   50 type  3   force =     0.00000000    0.00000000    0.00000000
     The SCF correction term to forces
     atom    1 type  1   force =     0.00000025    0.00000005    0.00000025
     atom    2 type  1   force =     0.00000113   -0.00000115    0.00000062
     atom    3 type  1   force =     0.00000032    0.00000062    0.00000082
     atom    4 type  1   force =    -0.00000020    0.00000044    0.00000052
     atom    5 type  2   force =     0.00000110    0.00000060    0.00000077
     atom    6 type  2   force =    -0.00000134    0.00000080    0.00000105
     atom    7 type  1   force =     0.00000065   -0.00000107    0.00000057
     atom    8 type  1   force =    -0.00000069   -0.00000065    0.00000041
     atom    9 type  2   force =    -0.00000013   -0.00000060    0.00000222
     atom   10 type  2   force =     0.00000036   -0.00000071    0.00000102
     atom   11 type  1   force =     0.00000076    0.00000091    0.00000059
     atom   12 type  1   force =    -0.00000074    0.00000037    0.00000052
     atom   13 type  1   force =     0.00000021    0.00000013    0.00000047
     atom   14 type  1   force =    -0.00000020    0.00000006   -0.00000014
     atom   15 type  1   force =    -0.00000029   -0.00000002    0.00000099
     atom   16 type  1   force =     0.00000036   -0.00000013    0.00000035
     atom   17 type  2   force =    -0.00000002    0.00000010    0.00000001
     atom   18 type  2   force =     0.00000027    0.00000013    0.00000001
     atom   19 type  1   force =    -0.00000040   -0.00000030    0.00000000
     atom   20 type  1   force =     0.00000005    0.00000014    0.00000000
     atom   21 type  2   force =    -0.00000041   -0.00000013    0.00000001
     atom   22 type  2   force =     0.00000039   -0.00000010    0.00000001
     atom   23 type  1   force =    -0.00000041    0.00000032    0.00000000
     atom   24 type  1   force =     0.00000007   -0.00000015    0.00000000
     atom   25 type  1   force =    -0.00000029   -0.00000002   -0.00000099
     atom   26 type  1   force =     0.00000036   -0.00000013   -0.00000034
     atom   27 type  1   force =     0.00000021    0.00000013   -0.00000047
     atom   28 type  1   force =    -0.00000020    0.00000006    0.00000014
     atom   29 type  2   force =     0.00000110    0.00000060   -0.00000077
     atom   30 type  2   force =    -0.00000134    0.00000080   -0.00000104
     atom   31 type  1   force =     0.00000065   -0.00000107   -0.00000056
     atom   32 type  1   force =    -0.00000069   -0.00000065   -0.00000041
     atom   33 type  2   force =    -0.00000013   -0.00000060   -0.00000222
     atom   34 type  2   force =     0.00000036   -0.00000071   -0.00000101
     atom   35 type  1   force =     0.00000076    0.00000091   -0.00000059
     atom   36 type  1   force =    -0.00000074    0.00000037   -0.00000052
     atom   37 type  1   force =     0.00000032    0.00000062   -0.00000082
     atom   38 type  1   force =    -0.00000020    0.00000044   -0.00000052
     atom   39 type  1   force =     0.00000025    0.00000005   -0.00000025
     atom   40 type  1   force =     0.00000113   -0.00000115   -0.00000062
     atom   41 type  3   force =     0.00000006   -0.00000004    0.00000006
     atom   42 type  3   force =     0.00000006   -0.00000004   -0.00000006
     atom   43 type  3   force =     0.00000002   -0.00000009    0.00000010
     atom   44 type  3   force =     0.00000002   -0.00000009   -0.00000010
     atom   45 type  3   force =     0.00000001   -0.00000009    0.00000008
     atom   46 type  3   force =     0.00000001   -0.00000009   -0.00000008
     atom   47 type  3   force =     0.00000001   -0.00000004    0.00000012
     atom   48 type  3   force =     0.00000001   -0.00000004   -0.00000012
     atom   49 type  3   force =     0.00000001    0.00000004    0.00000006
     atom   50 type  3   force =     0.00000001    0.00000004   -0.00000006

     Total force =     0.000438     Total SCF correction =     0.000007
     Energy error            =      4.6E-07 Ry
     Gradient error          =      9.0E-05 Ry/Bohr

     bfgs converged in  51 scf cycles and  50 bfgs steps
     (criteria: energy <  1.0E-04 Ry, force <  1.0E-04 Ry/Bohr)

     End of BFGS Geometry Optimization

     Final energy             =   -3440.3245650463 Ry

     File /storage/home/mgm6007/ixd4/Maria/Strain2_Files/RuO2-110-0-01234/RuO2-110-0-01234.bfgs deleted, as requested
Begin final coordinates

ATOMIC_POSITIONS (crystal)
O             0.0402019718        0.4352352712        0.2611608243
O             0.4602657945        0.4315592315        0.2654483092
O            -0.0022446312        0.0104208173        0.2977660903
O             0.4953318087        0.0072170384        0.2999766298
Ru            0.2485936151       -0.0075890731        0.3589792917
Ru            0.7451029526       -0.0084606317        0.3580504709
O             0.2493701410        0.3039126266        0.3624844580
O             0.7492590972        0.3046779467        0.3585952718
Ru            0.0007066010        0.4911519816        0.3591130470
Ru            0.4975627436        0.4921212918        0.3569247467
O             0.2481660651        0.6814738055        0.3535587885
O             0.7508534672        0.6799183846        0.3502317187
O            -0.0041629913       -0.0103801232        0.4110882935
O             0.4981965771       -0.0081961009        0.4111500980
O            -0.0027969854        0.5091204802        0.4458177248
O             0.5005425006        0.5095778924        0.4448479871
Ru           -0.0027725468        0.0065917908        0.5000010000
Ru            0.4974830651        0.0064521948        0.5000010000
O             0.2470440638        0.1949623438        0.5000010000
O             0.7470681562        0.1951991984        0.5000010000
Ru            0.2506936647        0.5076927007        0.5000010000
Ru            0.7475817875        0.5081115176        0.5000010000
O             0.2473243586        0.8195757003        0.5000010000
O             0.7472468366        0.8197937189        0.5000010000
O            -0.0027969854        0.5091204802        0.5541832752
O             0.5005425006        0.5095778924        0.5551530129
O            -0.0041629913       -0.0103801232        0.5889127065
O             0.4981965771       -0.0081961009        0.5888509020
Ru            0.2485936151       -0.0075890731        0.6410217083
Ru            0.7451029526       -0.0084606317        0.6419505291
O             0.2493701410        0.3039126266        0.6375165420
O             0.7492590972        0.3046779467        0.6414057282
Ru            0.0007066010        0.4911519816        0.6408879530
Ru            0.4975627436        0.4921212918        0.6430762533
O             0.2481660651        0.6814738055        0.6464422115
O             0.7508534672        0.6799183846        0.6497692813
O            -0.0022446312        0.0104208173        0.7022359097
O             0.4953318087        0.0072170384        0.7000253702
O             0.0402019718        0.4352352712        0.7388401757
O             0.4602657945        0.4315592315        0.7345526908
H             0.1949836959        0.4467438628        0.2560913629
H             0.1949836959        0.4467438628        0.7439086371
H             0.5699662015        0.4947695117        0.2409669148
H             0.5699662015        0.4947695117        0.7590330852
H             0.0144915798        0.2729505168        0.2623803439
H             0.0144915798        0.2729505168        0.7376196561
H             0.4920367597        0.1543498126        0.2791286113
H             0.4920367597        0.1543498126        0.7208713887
H            -0.0019916570        0.8944528745        0.2673100175
H            -0.0019916570        0.8944528745        0.7326899825
End final coordinates

     Writing all to output data dir /storage/home/mgm6007/ixd4/Maria/Strain2_Files/RuO2-110-0-01234/RuO2-110-0-01234.save/

     General routines

     Parallel routines

     Environ routines

   This run was terminated on:   4:36:14  29Jul2023

   JOB DONE.