     Program PWSCF v.7.2 starts on 18Jul2023 at 16:12:34
        Git branch: heads/qe-7.2
        Last git commit: b4c5e8deeb7d1863e7553a87b45f8d22c21926a5
        Last git commit date: Mon Mar 27 16:12:09 2023 +0000
        Last git commit subject: Merge branch 'merge_fix_hubbard' into 'develop'

     Reading input from RuO2-110-0-.in
Warning: card  H 1.007940 H.PBE-RRKJUS_PSL.1.0.0.UPF ignored

     Current dimensions of program PWSCF are:
     Max number of different atomic species (ntypx) = 10
     Max number of k-points (npk) =  40000
     Max angular momentum in pseudopotentials (lmaxx) =  4

     Reading input from environ.in:
     * Environ restarting
     * setting up water environment
     * using electronic solvent mode
     * setting boundary derivatives method to SCCS default

     file O.pbe-n-kjpaw_psl.0.1.UPF: wavefunction(s)  2P renormalized
     Message from routine setup:
     using ibrav=0 with symmetry is DISCOURAGED, use correct ibrav instead

     R & G space division:  proc/nbgrp/npool/nimage =      20
     Subspace diagonalization in iterative solution of the eigenvalue problem:
     one sub-group per band group will be used

     Using Slab Decomposition

     bravais-lattice index     =            0
     lattice parameter (alat)  =      12.1041  a.u.
     unit-cell volume          =    6089.0657 (a.u.)^3
     number of atoms/cell      =           40
     number of atomic types    =            2
     number of electrons       =       360.00
     number of Kohn-Sham states=          216
     kinetic-energy cutoff     =      50.0000  Ry
     charge density cutoff     =     500.0000  Ry
     scf convergence threshold =      1.0E-09
     mixing beta               =       0.7000
     number of iterations used =            8  local-TF  mixing
     energy convergence thresh.=      1.0E-04
     force convergence thresh. =      1.0E-04
     Exchange-correlation= PBE
                           (   1   4   3   4   0   0   0)
     nstep                     =          200

                                  Environ Setup Summary

          O. Andreussi, I. Dabo and N. Marzari, J. Chem. Phys. 136, 064102 (2012)

     in publications or presentations arising from this work.

     Parameters

     compensation onset threshold      =               0.1000E+00
     static permittivity               =                    78.30
     surface tension in input (dyn/cm) =                    47.90
     surface tension in internal units =               0.6153E-04
     external pressure in input (GPa)  =                    -0.36
     external pressure in inter. units =              -0.2447E-04

     Solvent Boundary

     solvent mode                      =               electronic
     derivatives method                =                    chain
     numerical core for derivatives    =                      fft
     switching function adopted        =                     SCCS
     density limit for vacuum region   =               0.5000E-02
     density limit for bulk solvent    =               0.1000E-03

     Electrostatic Setup

     electrostatic problem to solve    =              generalized
     numerical solver adopted          =                       cg
     type of auxiliary density adopted =                     none
     numerical core for poisson        =                      fft
     type of pbc corrections           =                parabolic
     numerical core for corrections    =                      1da

     celldm(1)=  12.104053  celldm(2)=   0.000000  celldm(3)=   0.000000
     celldm(4)=   0.000000  celldm(5)=   0.000000  celldm(6)=   0.000000

     crystal axes: (cart. coord. in units of alat)
               a(1) = (   1.000000   0.000000   0.000000 )
               a(2) = (   0.000000   0.971735   0.000000 )
               a(3) = (   0.000000   0.000000   3.533541 )

     reciprocal axes: (cart. coord. in units 2 pi/alat)
               b(1) = (  1.000000  0.000000  0.000000 )
               b(2) = (  0.000000  1.029087  0.000000 )
               b(3) = (  0.000000  0.000000  0.283002 )

     PseudoPot. # 1 for O  read from file:
     /gpfs/group/ixd4/default/Simon/pseudopotentials/materialscloud/SSSP_1.3.0_PBE_efficiency/O.pbe-n-kjpaw_psl.0.1.UPF
     MD5 check sum: 0234752ac141de4415c5fc33072bef88
     Pseudo is Projector augmented-wave + core cor, Zval =  6.0
     Generated using "atomic" code by A. Dal Corso  v.5.0.99 svn rev. 10869
     Shape of augmentation charge: BESSEL
     Using radial grid of 1095 points,  4 beta functions with:
                l(1) =   0
                l(2) =   0
                l(3) =   1
                l(4) =   1
     Q(r) pseudized with 0 coefficients

     PseudoPot. # 2 for Ru read from file:
     /gpfs/group/ixd4/default/Simon/pseudopotentials/materialscloud/SSSP_1.3.0_PBE_efficiency/Ru_ONCV_PBE-1.0.oncvpsp.upf
     MD5 check sum: be037bb81c227cfb9b1461a9f099f4bd
     Pseudo is Norm-conserving, Zval = 16.0
     Generated using ONCVPSP code by D. R. Hamann
     Using radial grid of 1458 points,  6 beta functions with:
                l(1) =   0
                l(2) =   0
                l(3) =   1
                l(4) =   1
                l(5) =   2
                l(6) =   2

     atomic species   valence    mass     pseudopotential
        O              6.00    15.99940     O ( 1.00)
        Ru            16.00   101.07000     Ru( 1.00)

      8 Sym. Ops., with inversion, found

                                    s                        frac. trans.

      isym =  1     identity

 cryst.   s( 1) = (     1          0          0      )
                  (     0          1          0      )
                  (     0          0          1      )

 cart.    s( 1) = (  1.0000000  0.0000000  0.0000000 )
                  (  0.0000000  1.0000000  0.0000000 )
                  (  0.0000000  0.0000000  1.0000000 )

      isym =  2     180 deg rotation - cart. axis [0,0,1]

[...]

      isym =  4     180 deg rotation - cart. axis [1,0,0]

[...]

      isym =  5     inversion

[...]

      isym =  6     inv. 180 deg rotation - cart. axis [0,0,1]

[...]

      isym =  8     inv. 180 deg rotation - cart. axis [1,0,0]

 cryst.   s( 8) = (    -1          0          0      )
                  (     0          1          0      )
                  (     0          0          1      )

 cart.    s( 8) = ( -1.0000000  0.0000000  0.0000000 )
                  (  0.0000000  1.0000000  0.0000000 )
                  (  0.0000000  0.0000000  1.0000000 )

   Cartesian axes

     site n.     atom                  positions (alat units)
         1           O   tau(   1) = (   0.0000000   0.4858677   0.9874535  )
         2           O   tau(   2) = (   0.5000000   0.4858677   0.9895892  )
         3           O   tau(   3) = (   0.0000000   0.0000000   1.1051662  )
         4           O   tau(   4) = (   0.5000000   0.0000000   1.1050060  )
         5           Ru  tau(   5) = (   0.2501092   0.0000000   1.2672272  )
         6           Ru  tau(   6) = (   0.7498908   0.0000000   1.2672272  )
         7           O   tau(   7) = (   0.2505954   0.2999500   1.2796191  )
         8           O   tau(   8) = (   0.7494046   0.2999500   1.2796191  )
         9           Ru  tau(   9) = (   0.0000000   0.4858677   1.2522692  )
        10           Ru  tau(  10) = (   0.5000000   0.4858677   1.2540253  )
        11           O   tau(  11) = (   0.2505954   0.6717854   1.2796191  )
        12           O   tau(  12) = (   0.7494046   0.6717854   1.2796191  )
        13           O   tau(  13) = (   0.0000000   0.0000000   1.4659633  )
        14           O   tau(  14) = (   0.5000000   0.0000000   1.4662726  )
        15           O   tau(  15) = (   0.0000000   0.4858677   1.5690442  )
        16           O   tau(  16) = (   0.5000000   0.4858677   1.5821358  )
        17           Ru  tau(  17) = (   0.0000000   0.0000000   1.7667741  )
        18           Ru  tau(  18) = (   0.5000000   0.0000000   1.7667741  )
        19           O   tau(  19) = (   0.2489047   0.1878894   1.7667741  )
        20           O   tau(  20) = (   0.7510953   0.1878894   1.7667741  )
        21           Ru  tau(  21) = (   0.2470123   0.4858677   1.7667741  )
        22           Ru  tau(  22) = (   0.7529877   0.4858677   1.7667741  )
        23           O   tau(  23) = (   0.2489047   0.7838470   1.7667741  )
        24           O   tau(  24) = (   0.7510953   0.7838470   1.7667741  )
        25           O   tau(  25) = (   0.0000000   0.4858677   1.9645005  )
        26           O   tau(  26) = (   0.5000000   0.4858677   1.9514089  )
        27           O   tau(  27) = (   0.0000000   0.0000000   2.0675815  )
        28           O   tau(  28) = (   0.5000000   0.0000000   2.0672722  )
        29           Ru  tau(  29) = (   0.2501092   0.0000000   2.2663211  )
        30           Ru  tau(  30) = (   0.7498908   0.0000000   2.2663211  )
        31           O   tau(  31) = (   0.2505954   0.2999500   2.2539292  )
        32           O   tau(  32) = (   0.7494046   0.2999500   2.2539292  )
        33           Ru  tau(  33) = (   0.0000000   0.4858677   2.2812791  )
        34           Ru  tau(  34) = (   0.5000000   0.4858677   2.2795230  )
        35           O   tau(  35) = (   0.2505954   0.6717854   2.2539292  )
        36           O   tau(  36) = (   0.7494046   0.6717854   2.2539292  )
        37           O   tau(  37) = (   0.0000000   0.0000000   2.4283785  )
        38           O   tau(  38) = (   0.5000000   0.0000000   2.4285387  )
        39           O   tau(  39) = (   0.0000000   0.4858677   2.5460913  )
        40           O   tau(  40) = (   0.5000000   0.4858677   2.5439555  )

   Crystallographic axes

     site n.     atom                  positions (cryst. coord.)
         1           O   tau(   1) = (  0.0000000  0.5000000  0.2794515  )
         2           O   tau(   2) = (  0.5000000  0.5000000  0.2800560  )
         3           O   tau(   3) = (  0.0000000  0.0000000  0.3127645  )
         4           O   tau(   4) = (  0.5000000  0.0000000  0.3127191  )
         5           Ru  tau(   5) = (  0.2501092  0.0000000  0.3586281  )
         6           Ru  tau(   6) = (  0.7498908  0.0000000  0.3586281  )
         7           O   tau(   7) = (  0.2505954  0.3086746  0.3621350  )
         8           O   tau(   8) = (  0.7494046  0.3086746  0.3621350  )
         9           Ru  tau(   9) = (  0.0000000  0.5000000  0.3543950  )
        10           Ru  tau(  10) = (  0.5000000  0.5000000  0.3548919  )
        11           O   tau(  11) = (  0.2505954  0.6913254  0.3621350  )
        12           O   tau(  12) = (  0.7494046  0.6913254  0.3621350  )
        13           O   tau(  13) = (  0.0000000  0.0000000  0.4148709  )
        14           O   tau(  14) = (  0.5000000  0.0000000  0.4149584  )
        15           O   tau(  15) = (  0.0000000  0.5000000  0.4440430  )
        16           O   tau(  16) = (  0.5000000  0.5000000  0.4477480  )
        17           Ru  tau(  17) = (  0.0000000  0.0000000  0.5000010  )
        18           Ru  tau(  18) = (  0.5000000  0.0000000  0.5000010  )
[...]
     atom   29 type  2   force =     0.00504413   -0.00000256  175.10352222
     atom   30 type  2   force =    -0.00504413   -0.00000256  175.10352222
     atom   31 type  1   force =     0.01269652   -1.61676194   61.73242065
     atom   32 type  1   force =    -0.01269652   -1.61676194   61.73242065
     atom   33 type  2   force =    -0.00000000    0.00000310  174.02695148
     atom   34 type  2   force =     0.00000000    0.00000312  172.91228051
     atom   35 type  1   force =     0.01269652    1.61676259   61.73241782
     atom   36 type  1   force =    -0.01269652    1.61676259   61.73241782
     atom   37 type  1   force =    -0.00000000   -0.00000038   94.80740485
     atom   38 type  1   force =    -0.00000000   -0.00000038   94.82168289
     atom   39 type  1   force =     0.00000000    0.00000019  102.32663554
     atom   40 type  1   force =     0.00000000    0.00000019  102.34671338
     The local contribution  to forces
     atom    1 type  1   force =    -0.00000000    0.00000000  100.87182759
     atom    2 type  1   force =     0.00000000    0.00000000  100.87849553
     atom    3 type  1   force =    -0.00000000    0.00000000   93.70028456
     atom    4 type  1   force =     0.00000000    0.00000000   93.71368568
     atom    5 type  2   force =    -0.00511934   -0.00000000  175.18912501
     atom    6 type  2   force =     0.00511934    0.00000000  175.18912501
     atom    7 type  1   force =    -0.01503894    1.56699518   61.91115856
     atom    8 type  1   force =     0.01503894    1.56699518   61.91115856
     atom    9 type  2   force =    -0.00000000    0.00000000  174.10620796
     atom   10 type  2   force =     0.00000000    0.00000000  172.98541843
     atom   11 type  1   force =    -0.01503894   -1.56699518   61.91115856
     atom   12 type  1   force =     0.01503894   -1.56699518   61.91115856
     atom   13 type  1   force =     0.00000000   -0.00000000   38.20762586
     atom   14 type  1   force =     0.00000000    0.00000000   38.17312645
     atom   15 type  1   force =    -0.00000000    0.00000000   27.48283443
     atom   16 type  1   force =     0.00000000    0.00000000   27.25503047
     atom   17 type  2   force =    -0.00000000    0.00000000   -0.00599527
     atom   18 type  2   force =    -0.00000000    0.00000000   -0.00599088
     atom   19 type  1   force =    -0.07197190   -1.63323699   -0.00250199
     atom   20 type  1   force =     0.07197190   -1.63323699   -0.00250199
     atom   21 type  2   force =     0.27741452   -0.00000000   -0.00616377
     atom   22 type  2   force =    -0.27741452   -0.00000000   -0.00616377
     atom   23 type  1   force =    -0.07197211    1.63286896   -0.00250199
     atom   24 type  1   force =     0.07197211    1.63286896   -0.00250199
     atom   25 type  1   force =    -0.00000000    0.00000000  -27.48465978
     atom   26 type  1   force =     0.00000000    0.00000000  -27.25688833
     atom   27 type  1   force =    -0.00000000    0.00000000  -38.20940038
     atom   28 type  1   force =     0.00000000   -0.00000000  -38.17490067
     atom   29 type  2   force =    -0.00511872   -0.00000000 -175.20159895
     atom   30 type  2   force =     0.00511872    0.00000000 -175.20159895
     atom   31 type  1   force =    -0.01503707    1.56704373  -61.91612234
     atom   32 type  1   force =     0.01503707    1.56704373  -61.91612234
     atom   33 type  2   force =    -0.00000000    0.00000000 -174.11797438
     atom   34 type  2   force =     0.00000000    0.00000000 -172.99723644
     atom   35 type  1   force =    -0.01503707   -1.56704373  -61.91612234
     atom   36 type  1   force =     0.01503707   -1.56704373  -61.91612234
     atom   37 type  1   force =     0.00000000   -0.00000000  -93.70229448
     atom   38 type  1   force =     0.00000000    0.00000000  -93.71569536
     atom   39 type  1   force =    -0.00000000    0.00000000 -100.87322242
     atom   40 type  1   force =     0.00000000    0.00000000 -100.87989647
     The core correction contribution to forces
     atom    1 type  1   force =    -0.00000000    0.00000000   -0.01171566
     atom    2 type  1   force =     0.00000000    0.00000000   -0.01193668
     atom    3 type  1   force =    -0.00000000    0.00000000   -0.01094106
     atom    4 type  1   force =    -0.00000000   -0.00000000   -0.01094779
     atom    5 type  2   force =     0.00000000    0.00000000    0.00000000
     atom    6 type  2   force =     0.00000000    0.00000000    0.00000000
     atom    7 type  1   force =    -0.00001184   -0.00073098    0.00190795
     atom    8 type  1   force =     0.00001184   -0.00073098    0.00190795
     atom    9 type  2   force =     0.00000000    0.00000000    0.00000000
     atom   10 type  2   force =     0.00000000    0.00000000    0.00000000
     atom   11 type  1   force =    -0.00001184    0.00073098    0.00190795
     atom   12 type  1   force =     0.00001184    0.00073098    0.00190795
     atom   13 type  1   force =     0.00000000    0.00000000   -0.00026819
     atom   14 type  1   force =    -0.00000000   -0.00000000   -0.00025607
     atom   15 type  1   force =    -0.00000000   -0.00000000   -0.00309475
     atom   16 type  1   force =    -0.00000000   -0.00000000   -0.00271501
     atom   17 type  2   force =     0.00000000    0.00000000    0.00000000
     atom   18 type  2   force =     0.00000000    0.00000000    0.00000000
     atom   19 type  1   force =     0.00009817    0.00029260   -0.00000201
     atom   20 type  1   force =    -0.00009817    0.00029260   -0.00000201
     atom   21 type  2   force =     0.00000000    0.00000000    0.00000000
     atom   22 type  2   force =     0.00000000    0.00000000    0.00000000
     atom   23 type  1   force =     0.00009816   -0.00029321   -0.00000201
     atom   24 type  1   force =    -0.00009816   -0.00029321   -0.00000201
     atom   25 type  1   force =     0.00000000    0.00000000    0.00309269
     atom   26 type  1   force =     0.00000000   -0.00000000    0.00271280
     atom   27 type  1   force =    -0.00000000   -0.00000000    0.00026587
     atom   28 type  1   force =     0.00000000   -0.00000000    0.00025376
     atom   29 type  2   force =     0.00000000    0.00000000    0.00000000
     atom   30 type  2   force =     0.00000000    0.00000000    0.00000000
     atom   31 type  1   force =    -0.00001181   -0.00073098   -0.00191051
     atom   32 type  1   force =     0.00001181   -0.00073098   -0.00191051
     atom   33 type  2   force =     0.00000000    0.00000000    0.00000000
     atom   34 type  2   force =     0.00000000    0.00000000    0.00000000
     atom   35 type  1   force =    -0.00001181    0.00073098   -0.00191051
     atom   36 type  1   force =     0.00001181    0.00073098   -0.00191051
     atom   37 type  1   force =    -0.00000000    0.00000000    0.01093866
     atom   38 type  1   force =     0.00000000    0.00000000    0.01094539
     atom   39 type  1   force =     0.00000000    0.00000000    0.01171402
     atom   40 type  1   force =    -0.00000000    0.00000000    0.01193485
     The Hubbard contrib.    to forces
     atom    1 type  1   force =     0.00000000    0.00000000    0.00000000
     atom    2 type  1   force =     0.00000000    0.00000000    0.00000000
     atom    3 type  1   force =     0.00000000    0.00000000    0.00000000
     atom    4 type  1   force =     0.00000000    0.00000000    0.00000000
     atom    5 type  2   force =     0.00000000    0.00000000    0.00000000
     atom    6 type  2   force =     0.00000000    0.00000000    0.00000000
     atom    7 type  1   force =     0.00000000    0.00000000    0.00000000
     atom    8 type  1   force =     0.00000000    0.00000000    0.00000000
     atom    9 type  2   force =     0.00000000    0.00000000    0.00000000
     atom   10 type  2   force =     0.00000000    0.00000000    0.00000000
     atom   11 type  1   force =     0.00000000    0.00000000    0.00000000
     atom   12 type  1   force =     0.00000000    0.00000000    0.00000000
     atom   13 type  1   force =     0.00000000    0.00000000    0.00000000
     atom   14 type  1   force =     0.00000000    0.00000000    0.00000000
     atom   15 type  1   force =     0.00000000    0.00000000    0.00000000
     atom   16 type  1   force =     0.00000000    0.00000000    0.00000000
     atom   17 type  2   force =     0.00000000    0.00000000    0.00000000
     atom   18 type  2   force =     0.00000000    0.00000000    0.00000000
     atom   19 type  1   force =     0.00000000    0.00000000    0.00000000
     atom   20 type  1   force =     0.00000000    0.00000000    0.00000000
     atom   21 type  2   force =     0.00000000    0.00000000    0.00000000
     atom   22 type  2   force =     0.00000000    0.00000000    0.00000000
     atom   23 type  1   force =     0.00000000    0.00000000    0.00000000
     atom   24 type  1   force =     0.00000000    0.00000000    0.00000000
     atom   25 type  1   force =     0.00000000    0.00000000    0.00000000
     atom   26 type  1   force =     0.00000000    0.00000000    0.00000000
     atom   27 type  1   force =     0.00000000    0.00000000    0.00000000
     atom   28 type  1   force =     0.00000000    0.00000000    0.00000000
     atom   29 type  2   force =     0.00000000    0.00000000    0.00000000
     atom   30 type  2   force =     0.00000000    0.00000000    0.00000000
     atom   31 type  1   force =     0.00000000    0.00000000    0.00000000
     atom   32 type  1   force =     0.00000000    0.00000000    0.00000000
     atom   33 type  2   force =     0.00000000    0.00000000    0.00000000
     atom   34 type  2   force =     0.00000000    0.00000000    0.00000000
     atom   35 type  1   force =     0.00000000    0.00000000    0.00000000
     atom   36 type  1   force =     0.00000000    0.00000000    0.00000000
     atom   37 type  1   force =     0.00000000    0.00000000    0.00000000
     atom   38 type  1   force =     0.00000000    0.00000000    0.00000000
     atom   39 type  1   force =     0.00000000    0.00000000    0.00000000
     atom   40 type  1   force =     0.00000000    0.00000000    0.00000000
     The SCF correction term to forces
     atom    1 type  1   force =    -0.00000000    0.00000000   -0.00000117
     atom    2 type  1   force =     0.00000000    0.00000000   -0.00000151
     atom    3 type  1   force =    -0.00000000   -0.00000000   -0.00000114
     atom    4 type  1   force =     0.00000000   -0.00000000   -0.00000126
     atom    5 type  2   force =     0.00000023   -0.00000000   -0.00000284
     atom    6 type  2   force =    -0.00000023   -0.00000000   -0.00000284
     atom    7 type  1   force =     0.00000044    0.00000010   -0.00000116
     atom    8 type  1   force =    -0.00000044    0.00000010   -0.00000116
     atom    9 type  2   force =     0.00000000    0.00000000   -0.00000262
     atom   10 type  2   force =    -0.00000000    0.00000000   -0.00000306
     atom   11 type  1   force =     0.00000044   -0.00000010   -0.00000116
     atom   12 type  1   force =    -0.00000044   -0.00000010   -0.00000116
     atom   13 type  1   force =     0.00000000   -0.00000000   -0.00000024
     atom   14 type  1   force =    -0.00000000   -0.00000000   -0.00000120
     atom   15 type  1   force =     0.00000000    0.00000000   -0.00000061
     atom   16 type  1   force =     0.00000000    0.00000000   -0.00000110
     atom   17 type  2   force =    -0.00000000   -0.00000000   -0.00000000
     atom   18 type  2   force =     0.00000000   -0.00000000   -0.00000000
     atom   19 type  1   force =    -0.00000072   -0.00000025   -0.00000000
     atom   20 type  1   force =     0.00000072   -0.00000025   -0.00000000
     atom   21 type  2   force =    -0.00000016    0.00000000   -0.00000001
     atom   22 type  2   force =     0.00000016    0.00000000   -0.00000001
     atom   23 type  1   force =    -0.00000072    0.00000025   -0.00000000
     atom   24 type  1   force =     0.00000072    0.00000025   -0.00000000
     atom   25 type  1   force =     0.00000000    0.00000000    0.00000060
     atom   26 type  1   force =     0.00000000    0.00000000    0.00000108
     atom   27 type  1   force =    -0.00000000   -0.00000000    0.00000024
     atom   28 type  1   force =    -0.00000000   -0.00000000    0.00000119
     atom   29 type  2   force =     0.00000021   -0.00000000    0.00000283
     atom   30 type  2   force =    -0.00000021   -0.00000000    0.00000283
     atom   31 type  1   force =     0.00000042    0.00000008    0.00000115
     atom   32 type  1   force =    -0.00000042    0.00000008    0.00000115
     atom   33 type  2   force =     0.00000000    0.00000000    0.00000262
     atom   34 type  2   force =     0.00000000    0.00000000    0.00000305
     atom   35 type  1   force =     0.00000042   -0.00000008    0.00000115
     atom   36 type  1   force =    -0.00000042   -0.00000008    0.00000115
     atom   37 type  1   force =    -0.00000000    0.00000000    0.00000114
     atom   38 type  1   force =    -0.00000000   -0.00000000    0.00000126
     atom   39 type  1   force =    -0.00000000    0.00000000    0.00000117
     atom   40 type  1   force =     0.00000000    0.00000000    0.00000154

     Total force =     0.000188     Total SCF correction =     0.000010
     Energy error            =      1.1E-07 Ry
     Gradient error          =      8.7E-05 Ry/Bohr

     bfgs converged in  16 scf cycles and  15 bfgs steps
     (criteria: energy <  1.0E-04 Ry, force <  1.0E-04 Ry/Bohr)

     End of BFGS Geometry Optimization

     Final energy             =   -3427.7157924938 Ry

     File /storage/home/mgm6007/ixd4/Maria/Strain0_Files/RuO2-110-0-/RuO2-110-0-.bfgs deleted, as requested
Begin final coordinates

ATOMIC_POSITIONS (crystal)
O             0.0000000000        0.5000000000        0.2790939805
O             0.5000000000        0.5000000000        0.2794913984
O             0.0000000000        0.0000000000        0.3120755007
O             0.5000000000        0.0000000000        0.3120615196
Ru            0.2500471981       -0.0000000000        0.3582723334
Ru            0.7499528019        0.0000000000        0.3582723334
O             0.2502941372        0.3105112665        0.3623047056
O             0.7497058628        0.3105112665        0.3623047056
Ru            0.0000000000        0.5000000000        0.3542494661
Ru            0.5000000000        0.5000000000        0.3545918576
O             0.2502941372        0.6894887335        0.3623047056
O             0.7497058628        0.6894887335        0.3623047056
O             0.0000000000        0.0000000000        0.4144863478
O             0.5000000000        0.0000000000        0.4144989529
O             0.0000000000        0.5000000000        0.4448892538
O             0.5000000000        0.5000000000        0.4472342363
Ru            0.0000000000        0.0000000000        0.5000010000
Ru            0.5000000000        0.0000000000        0.5000010000
O             0.2496237796        0.1899548222        0.5000010000
O             0.7503762204        0.1899548222        0.5000010000
Ru            0.2481726284        0.5000000000        0.5000010000
Ru            0.7518273716        0.5000000000        0.5000010000
O             0.2496237796        0.8100461778        0.5000010000
O             0.7503762204        0.8100461778        0.5000010000
O             0.0000000000        0.5000000000        0.5551117462
O             0.5000000000        0.5000000000        0.5527667637
O             0.0000000000        0.0000000000        0.5855146522
O             0.5000000000        0.0000000000        0.5855020471
Ru            0.2500471981        0.0000000000        0.6417296666
Ru            0.7499528019       -0.0000000000        0.6417296666
O             0.2502941372        0.3105112665        0.6376972944
O             0.7497058628        0.3105112665        0.6376972944
Ru            0.0000000000        0.5000000000        0.6457525339
Ru            0.5000000000        0.5000000000        0.6454101424
O             0.2502941372        0.6894887335        0.6376972944
O             0.7497058628        0.6894887335        0.6376972944
O             0.0000000000        0.0000000000        0.6879254993
O             0.5000000000        0.0000000000        0.6879394804
O             0.0000000000        0.5000000000        0.7209070195
O             0.5000000000        0.5000000000        0.7205096016
End final coordinates

     Writing all to output data dir /storage/home/mgm6007/ixd4/Maria/Strain0_Files/RuO2-110-0-/RuO2-110-0-.save/

     General routines

     Parallel routines

     PAW routines

     Environ routines

   This run was terminated on:  12:12:37  19Jul2023

   JOB DONE.