     Program PWSCF v.7.2 starts on 18Jul2023 at 16:10:58
        Git branch: heads/qe-7.2
        Last git commit: b4c5e8deeb7d1863e7553a87b45f8d22c21926a5
        Last git commit date: Mon Mar 27 16:12:09 2023 +0000
        Last git commit subject: Merge branch 'merge_fix_hubbard' into 'develop'

     Reading input from RuO2-110-0-0124.in

     Current dimensions of program PWSCF are:
     Max number of different atomic species (ntypx) = 10
     Max number of k-points (npk) =  40000
     Max angular momentum in pseudopotentials (lmaxx) =  4

     Reading input from environ.in:
     * Environ restarting
     * setting up water environment
     * using electronic solvent mode
     * setting boundary derivatives method to SCCS default

     File /storage/home/mgm6007/ixd4/Maria/Strain1_Files/RuO2-110-0-0124/RuO2-110-0-0124.update deleted, as requested

     File /storage/home/mgm6007/ixd4/Maria/Strain1_Files/RuO2-110-0-0124/RuO2-110-0-0124.bfgs deleted, as requested
     file O.pbe-n-kjpaw_psl.0.1.UPF: wavefunction(s)  2P renormalized
     Message from routine setup:
     using ibrav=0 with symmetry is DISCOURAGED, use correct ibrav instead

     R & G space division:  proc/nbgrp/npool/nimage =      20
     Subspace diagonalization in iterative solution of the eigenvalue problem:
     one sub-group per band group will be used

     Using Slab Decomposition

     bravais-lattice index     =            0
     lattice parameter (alat)  =      12.3893  a.u.
     unit-cell volume          =    5808.5831 (a.u.)^3
     number of atoms/cell      =           48
     number of atomic types    =            3
     number of electrons       =       368.00
     number of Kohn-Sham states=          221
     kinetic-energy cutoff     =      50.0000  Ry
     charge density cutoff     =     500.0000  Ry
     scf convergence threshold =      1.0E-09
     mixing beta               =       0.7000
     number of iterations used =            8  local-TF  mixing
     energy convergence thresh.=      1.0E-04
     force convergence thresh. =      1.0E-04
     Exchange-correlation= PBE
                           (   1   4   3   4   0   0   0)
     nstep                     =          200

                                  Environ Setup Summary

          O. Andreussi, I. Dabo and N. Marzari, J. Chem. Phys. 136, 064102 (2012)

     in publications or presentations arising from this work.

     Parameters

     compensation onset threshold      =               0.1000E+00
     static permittivity               =                    78.30
     surface tension in input (dyn/cm) =                    47.90
     surface tension in internal units =               0.6153E-04
     external pressure in input (GPa)  =                    -0.36
     external pressure in inter. units =              -0.2447E-04

     Solvent Boundary

     solvent mode                      =               electronic
     derivatives method                =                    chain
     numerical core for derivatives    =                      fft
     switching function adopted        =                     SCCS
     density limit for vacuum region   =               0.5000E-02
     density limit for bulk solvent    =               0.1000E-03

     Electrostatic Setup

     electrostatic problem to solve    =              generalized
     numerical solver adopted          =                       cg
     type of auxiliary density adopted =                     none
     numerical core for poisson        =                      fft
     type of pbc corrections           =                parabolic
     numerical core for corrections    =                      1da

     celldm(1)=  12.389316  celldm(2)=   0.000000  celldm(3)=   0.000000
     celldm(4)=   0.000000  celldm(5)=   0.000000  celldm(6)=   0.000000

     crystal axes: (cart. coord. in units of alat)
               a(1) = (   1.000000   0.000000   0.000000 )
               a(2) = (   0.000000   0.904766   0.000000 )
               a(3) = (   0.000000   0.000000   3.375918 )

     reciprocal axes: (cart. coord. in units 2 pi/alat)
               b(1) = (  1.000000  0.000000  0.000000 )
               b(2) = (  0.000000  1.105258  0.000000 )
               b(3) = (  0.000000  0.000000  0.296216 )

     PseudoPot. # 1 for O  read from file:
     /gpfs/group/ixd4/default/Simon/pseudopotentials/materialscloud/SSSP_1.3.0_PBE_efficiency/O.pbe-n-kjpaw_psl.0.1.UPF
     MD5 check sum: 0234752ac141de4415c5fc33072bef88
     Pseudo is Projector augmented-wave + core cor, Zval =  6.0
     Generated using "atomic" code by A. Dal Corso  v.5.0.99 svn rev. 10869
     Shape of augmentation charge: BESSEL
     Using radial grid of 1095 points,  4 beta functions with:
                l(1) =   0
                l(2) =   0
                l(3) =   1
                l(4) =   1
     Q(r) pseudized with 0 coefficients

     PseudoPot. # 2 for Ru read from file:
     /gpfs/group/ixd4/default/Simon/pseudopotentials/materialscloud/SSSP_1.3.0_PBE_efficiency/Ru_ONCV_PBE-1.0.oncvpsp.upf
     MD5 check sum: be037bb81c227cfb9b1461a9f099f4bd
     Pseudo is Norm-conserving, Zval = 16.0
     Generated using ONCVPSP code by D. R. Hamann
     Using radial grid of 1458 points,  6 beta functions with:
                l(1) =   0
                l(2) =   0
                l(3) =   1
                l(4) =   1
                l(5) =   2
                l(6) =   2

     PseudoPot. # 3 for H  read from file:
     /gpfs/group/ixd4/default/Simon/pseudopotentials/materialscloud/SSSP_1.3.0_PBE_efficiency/H.pbe-rrkjus_psl.1.0.0.UPF
     MD5 check sum: f52b6d4d1c606e5624b1dc7b2218f220
     Pseudo is Ultrasoft, Zval =  1.0
     Generated using "atomic" code by A. Dal Corso  v.5.1
     Using radial grid of  929 points,  2 beta functions with:
                l(1) =   0
                l(2) =   0
     Q(r) pseudized with 0 coefficients

     atomic species   valence    mass     pseudopotential
        O              6.00    15.99940     O ( 1.00)
        Ru            16.00   101.07000     Ru( 1.00)
        H              1.00     1.00794     H ( 1.00)

      4 Sym. Ops. (no inversion) found

   Cartesian axes

     site n.     atom                  positions (alat units)
         1           O   tau(   1) = (   0.0037288   0.4523832   0.8994549  )
         2           O   tau(   2) = (   0.4865922   0.4523832   0.9028934  )
         3           O   tau(   3) = (  -0.0033154   0.0000000   0.9799550  )
         4           O   tau(   4) = (   0.4983998   0.0000000   1.0350298  )
         5           Ru  tau(   5) = (   0.2627270   0.0000000   1.2073936  )
         6           Ru  tau(   6) = (   0.7347914   0.0000000   1.2068370  )
         7           O   tau(   7) = (   0.2482047   0.2838479   1.2058808  )
         8           O   tau(   8) = (   0.7513934   0.2840435   1.2018071  )
         9           Ru  tau(   9) = (   0.0003570   0.4523832   1.2091853  )
        10           Ru  tau(  10) = (   0.4996748   0.4523832   1.2024374  )
        11           O   tau(  11) = (   0.2482047   0.6209184   1.2058808  )
        12           O   tau(  12) = (   0.7513934   0.6207228   1.2018071  )
        13           O   tau(  13) = (  -0.0015740   0.0000000   1.3858558  )
        14           O   tau(  14) = (   0.4989800   0.0000000   1.3894565  )
        15           O   tau(  15) = (  -0.0003574   0.4523832   1.5056020  )
        16           O   tau(  16) = (   0.5004831   0.4523832   1.5016600  )
        17           Ru  tau(  17) = (  -0.0016047   0.0000000   1.6879622  )
        18           Ru  tau(  18) = (   0.4984130   0.0000000   1.6879622  )
        19           O   tau(  19) = (   0.2474091   0.1682044   1.6879622  )
        20           O   tau(  20) = (   0.7490431   0.1681974   1.6879622  )
        21           Ru  tau(  21) = (   0.2509854   0.4523832   1.6879622  )
        22           Ru  tau(  22) = (   0.7494322   0.4523832   1.6879622  )
        23           O   tau(  23) = (   0.2474091   0.7365629   1.6879622  )
        24           O   tau(  24) = (   0.7490431   0.7365698   1.6879622  )
        25           O   tau(  25) = (  -0.0003574   0.4523832   1.8703190  )
        26           O   tau(  26) = (   0.5004831   0.4523832   1.8742609  )
        27           O   tau(  27) = (  -0.0015740   0.0000000   1.9900651  )
        28           O   tau(  28) = (   0.4989800   0.0000000   1.9864644  )
        29           Ru  tau(  29) = (   0.2627270   0.0000000   2.1685273  )
        30           Ru  tau(  30) = (   0.7347914   0.0000000   2.1690840  )
        31           O   tau(  31) = (   0.2482047   0.2838479   2.1700401  )
        32           O   tau(  32) = (   0.7513934   0.2840435   2.1741138  )
        33           Ru  tau(  33) = (   0.0003570   0.4523832   2.1667357  )
        34           Ru  tau(  34) = (   0.4996748   0.4523832   2.1734835  )
        35           O   tau(  35) = (   0.2482047   0.6209184   2.1700401  )
        36           O   tau(  36) = (   0.7513934   0.6207228   2.1741138  )
        37           O   tau(  37) = (  -0.0033154   0.0000000   2.3959693  )
        38           O   tau(  38) = (   0.4983998   0.0000000   2.3408945  )
        39           O   tau(  39) = (   0.0037288   0.4523832   2.4764661  )
        40           O   tau(  40) = (   0.4865922   0.4523832   2.4730275  )
        41           H   tau(  41) = (   0.1474478   0.4523832   0.8580276  )
        42           H   tau(  42) = (   0.1474478   0.4523832   2.5178900  )
        43           H   tau(  43) = (   0.6245235   0.4523832   0.8463960  )
        44           H   tau(  44) = (   0.6245235   0.4523832   2.5295215  )
        45           H   tau(  45) = (  -0.0057250   0.1236379   0.8922660  )
        46           H   tau(  46) = (  -0.0057250   0.1236379   2.4836515  )
        47           H   tau(  47) = (  -0.0057250   0.7811284   0.8922660  )
        48           H   tau(  48) = (  -0.0057250   0.7811284   2.4836515  )

     number of k points=     1  Marzari-Vanderbilt smearing, width (Ry)=  0.0300
                       cart. coord. in units 2pi/alat
        k(    1) = (   0.2500000   0.2763144   0.0000000), wk =   2.0000000

     Check: negative core charge=   -0.000001

     Initial potential from superposition of free atoms

     starting charge     367.9933, renormalised to     368.0000

     add environment contribution to local potential
     Polarization accuracy = 6.3E-12, # of iterations =  23

     negative rho (up, down):  2.563E-05 0.000E+00
     Starting wfcs are  240 randomized atomic wfcs
     Checking if some PAW data can be deallocated...

     Self-consistent Calculation

     iteration #  1     ecut=    50.00 Ry     beta= 0.70
     Davidson diagonalization with overlap
     ethr =  1.00E-02,  avg # of iterations =  2.0

     total energy              =   -3435.43815100 Ry
     estimated scf accuracy    <       9.04534411 Ry
     electrostatic embedding   =      -0.00178651 Ry
     cavitation energy         =       0.01922687 Ry
     PV energy                 =      -0.08578780 Ry
     correction to one-el term =     224.40044021 Ry

[...]

     negative rho (up, down):  1.371E-04 0.000E+00

[...]

[...]
     atom   27 type  1   force =     0.04655646    0.00000000  -40.53889779
     atom   28 type  1   force =    -0.07947917    0.00000000  -37.06370180
     atom   29 type  2   force =     6.91033381   -0.00000000 -172.25998960
     atom   30 type  2   force =    -6.68098837   -0.00000000 -172.15625908
     atom   31 type  1   force =     0.79481842    0.95139889  -64.20644512
     atom   32 type  1   force =    -0.86734494    0.78219227  -65.14197682
     atom   33 type  2   force =     0.71489982    0.00000000 -169.41722663
     atom   34 type  2   force =    -0.57402129    0.00000000 -171.71463624
     atom   35 type  1   force =     0.79481842   -0.95139889  -64.20644512
     atom   36 type  1   force =    -0.86734494   -0.78219227  -65.14197682
     atom   37 type  1   force =    -0.10990906   -0.00000000  -90.66163252
     atom   38 type  1   force =    -0.04308607   -0.00000000  -94.44174003
     atom   39 type  1   force =     1.39689244    0.00000000  -94.51618894
     atom   40 type  1   force =     0.91799503    0.00000000  -95.60483423
     atom   41 type  3   force =    -2.81767616    0.00000000   16.15802552
     atom   42 type  3   force =    -2.81767616    0.00000000  -16.15802552
     atom   43 type  3   force =    -2.83653565    0.00000000   16.41913898
     atom   44 type  3   force =    -2.83653565    0.00000000  -16.41913898
     atom   45 type  3   force =     0.06953135   -2.11364983   16.91882853
     atom   46 type  3   force =     0.06953135   -2.11364983  -16.91882853
     atom   47 type  3   force =     0.06953135    2.11364983   16.91882853
     atom   48 type  3   force =     0.06953135    2.11364983  -16.91882853
     The core correction contribution to forces
     atom    1 type  1   force =    -0.01703644    0.00000000   -0.00408481
     atom    2 type  1   force =    -0.01773802   -0.00000000   -0.00252526
     atom    3 type  1   force =     0.00060105    0.00000000    0.01384179
     atom    4 type  1   force =    -0.00004700    0.00000000   -0.01213792
     atom    5 type  2   force =     0.00000000    0.00000000    0.00000000
     atom    6 type  2   force =     0.00000000    0.00000000    0.00000000
     atom    7 type  1   force =    -0.00009198    0.00077532    0.00006676
     atom    8 type  1   force =     0.00043821    0.00090694   -0.00011353
     atom    9 type  2   force =     0.00000000    0.00000000    0.00000000
     atom   10 type  2   force =     0.00000000    0.00000000    0.00000000
     atom   11 type  1   force =    -0.00009198   -0.00077532    0.00006676
     atom   12 type  1   force =     0.00043821   -0.00090694   -0.00011353
     atom   13 type  1   force =     0.00002704   -0.00000000   -0.00158985
     atom   14 type  1   force =     0.00010317    0.00000000    0.00251726
     atom   15 type  1   force =     0.00011485    0.00000000    0.00045215
     atom   16 type  1   force =     0.00001313   -0.00000000   -0.00027445
     atom   17 type  2   force =     0.00000000    0.00000000    0.00000000
     atom   18 type  2   force =     0.00000000    0.00000000    0.00000000
     atom   19 type  1   force =    -0.00027132   -0.00043377   -0.00000209
     atom   20 type  1   force =     0.00008414   -0.00043410   -0.00000209
     atom   21 type  2   force =     0.00000000    0.00000000    0.00000000
     atom   22 type  2   force =     0.00000000    0.00000000    0.00000000
     atom   23 type  1   force =    -0.00027133    0.00043327   -0.00000209
     atom   24 type  1   force =     0.00008415    0.00043359   -0.00000209
     atom   25 type  1   force =     0.00011483   -0.00000000   -0.00045438
     atom   26 type  1   force =     0.00001310    0.00000000    0.00027227
     atom   27 type  1   force =     0.00002704    0.00000000    0.00158751
     atom   28 type  1   force =     0.00010319    0.00000000   -0.00251969
     atom   29 type  2   force =     0.00000000    0.00000000    0.00000000
     atom   30 type  2   force =     0.00000000    0.00000000    0.00000000
     atom   31 type  1   force =    -0.00009186    0.00077537   -0.00006874
     atom   32 type  1   force =     0.00043812    0.00090703    0.00011152
     atom   33 type  2   force =     0.00000000    0.00000000    0.00000000
     atom   34 type  2   force =     0.00000000    0.00000000    0.00000000
     atom   35 type  1   force =    -0.00009186   -0.00077537   -0.00006874
     atom   36 type  1   force =     0.00043812   -0.00090703    0.00011152
     atom   37 type  1   force =     0.00060109    0.00000000   -0.01384547
     atom   38 type  1   force =    -0.00004701   -0.00000000    0.01213418
     atom   39 type  1   force =    -0.01703719    0.00000000    0.00408253
     atom   40 type  1   force =    -0.01773884    0.00000000    0.00252287
     atom   41 type  3   force =     0.00000000    0.00000000    0.00000000
     atom   42 type  3   force =     0.00000000    0.00000000    0.00000000
     atom   43 type  3   force =     0.00000000    0.00000000    0.00000000
     atom   44 type  3   force =     0.00000000    0.00000000    0.00000000
     atom   45 type  3   force =     0.00000000    0.00000000    0.00000000
     atom   46 type  3   force =     0.00000000    0.00000000    0.00000000
     atom   47 type  3   force =     0.00000000    0.00000000    0.00000000
     atom   48 type  3   force =     0.00000000    0.00000000    0.00000000
     The Hubbard contrib.    to forces
     atom    1 type  1   force =     0.00000000    0.00000000    0.00000000
     atom    2 type  1   force =     0.00000000    0.00000000    0.00000000
     atom    3 type  1   force =     0.00000000    0.00000000    0.00000000
     atom    4 type  1   force =     0.00000000    0.00000000    0.00000000
     atom    5 type  2   force =     0.00000000    0.00000000    0.00000000
     atom    6 type  2   force =     0.00000000    0.00000000    0.00000000
     atom    7 type  1   force =     0.00000000    0.00000000    0.00000000
     atom    8 type  1   force =     0.00000000    0.00000000    0.00000000
     atom    9 type  2   force =     0.00000000    0.00000000    0.00000000
     atom   10 type  2   force =     0.00000000    0.00000000    0.00000000
     atom   11 type  1   force =     0.00000000    0.00000000    0.00000000
     atom   12 type  1   force =     0.00000000    0.00000000    0.00000000
     atom   13 type  1   force =     0.00000000    0.00000000    0.00000000
     atom   14 type  1   force =     0.00000000    0.00000000    0.00000000
     atom   15 type  1   force =     0.00000000    0.00000000    0.00000000
     atom   16 type  1   force =     0.00000000    0.00000000    0.00000000
     atom   17 type  2   force =     0.00000000    0.00000000    0.00000000
     atom   18 type  2   force =     0.00000000    0.00000000    0.00000000
     atom   19 type  1   force =     0.00000000    0.00000000    0.00000000
     atom   20 type  1   force =     0.00000000    0.00000000    0.00000000
     atom   21 type  2   force =     0.00000000    0.00000000    0.00000000
     atom   22 type  2   force =     0.00000000    0.00000000    0.00000000
     atom   23 type  1   force =     0.00000000    0.00000000    0.00000000
     atom   24 type  1   force =     0.00000000    0.00000000    0.00000000
     atom   25 type  1   force =     0.00000000    0.00000000    0.00000000
     atom   26 type  1   force =     0.00000000    0.00000000    0.00000000
     atom   27 type  1   force =     0.00000000    0.00000000    0.00000000
     atom   28 type  1   force =     0.00000000    0.00000000    0.00000000
     atom   29 type  2   force =     0.00000000    0.00000000    0.00000000
     atom   30 type  2   force =     0.00000000    0.00000000    0.00000000
     atom   31 type  1   force =     0.00000000    0.00000000    0.00000000
     atom   32 type  1   force =     0.00000000    0.00000000    0.00000000
     atom   33 type  2   force =     0.00000000    0.00000000    0.00000000
     atom   34 type  2   force =     0.00000000    0.00000000    0.00000000
     atom   35 type  1   force =     0.00000000    0.00000000    0.00000000
     atom   36 type  1   force =     0.00000000    0.00000000    0.00000000
     atom   37 type  1   force =     0.00000000    0.00000000    0.00000000
     atom   38 type  1   force =     0.00000000    0.00000000    0.00000000
     atom   39 type  1   force =     0.00000000    0.00000000    0.00000000
     atom   40 type  1   force =     0.00000000    0.00000000    0.00000000
     atom   41 type  3   force =     0.00000000    0.00000000    0.00000000
     atom   42 type  3   force =     0.00000000    0.00000000    0.00000000
     atom   43 type  3   force =     0.00000000    0.00000000    0.00000000
     atom   44 type  3   force =     0.00000000    0.00000000    0.00000000
     atom   45 type  3   force =     0.00000000    0.00000000    0.00000000
     atom   46 type  3   force =     0.00000000    0.00000000    0.00000000
     atom   47 type  3   force =     0.00000000    0.00000000    0.00000000
     atom   48 type  3   force =     0.00000000    0.00000000    0.00000000
     The SCF correction term to forces
     atom    1 type  1   force =    -0.00000026    0.00000000   -0.00000053
     atom    2 type  1   force =     0.00000001   -0.00000000   -0.00000045
     atom    3 type  1   force =     0.00000002   -0.00000000   -0.00000036
     atom    4 type  1   force =    -0.00000020    0.00000000   -0.00000017
     atom    5 type  2   force =    -0.00000068   -0.00000000   -0.00000002
     atom    6 type  2   force =     0.00000054   -0.00000000   -0.00000103
     atom    7 type  1   force =    -0.00000013   -0.00000066    0.00000060
     atom    8 type  1   force =     0.00000011   -0.00000005   -0.00000029
     atom    9 type  2   force =    -0.00000005    0.00000000    0.00000033
     atom   10 type  2   force =     0.00000001    0.00000000    0.00000068
     atom   11 type  1   force =    -0.00000013    0.00000066    0.00000060
     atom   12 type  1   force =     0.00000011    0.00000005   -0.00000029
     atom   13 type  1   force =     0.00000054   -0.00000000   -0.00000056
     atom   14 type  1   force =    -0.00000067   -0.00000000   -0.00000016
     atom   15 type  1   force =     0.00000056   -0.00000000   -0.00000033
     atom   16 type  1   force =    -0.00000052    0.00000000   -0.00000029
     atom   17 type  2   force =     0.00000101   -0.00000000    0.00000001
     atom   18 type  2   force =    -0.00000097    0.00000000    0.00000000
     atom   19 type  1   force =     0.00000042    0.00000021    0.00000000
     atom   20 type  1   force =    -0.00000034   -0.00000011    0.00000000
     atom   21 type  2   force =    -0.00000006    0.00000000    0.00000000
     atom   22 type  2   force =    -0.00000070    0.00000000    0.00000000
     atom   23 type  1   force =     0.00000042   -0.00000021    0.00000000
     atom   24 type  1   force =    -0.00000034    0.00000011    0.00000000
     atom   25 type  1   force =     0.00000056   -0.00000000    0.00000033
     atom   26 type  1   force =    -0.00000052    0.00000000    0.00000029
     atom   27 type  1   force =     0.00000054   -0.00000000    0.00000056
     atom   28 type  1   force =    -0.00000067   -0.00000000    0.00000017
     atom   29 type  2   force =    -0.00000068   -0.00000000    0.00000002
     atom   30 type  2   force =     0.00000054   -0.00000000    0.00000103
     atom   31 type  1   force =    -0.00000013   -0.00000066   -0.00000060
     atom   32 type  1   force =     0.00000011   -0.00000006    0.00000029
     atom   33 type  2   force =    -0.00000005    0.00000000   -0.00000033
     atom   34 type  2   force =     0.00000001    0.00000000   -0.00000067
     atom   35 type  1   force =    -0.00000013    0.00000066   -0.00000060
     atom   36 type  1   force =     0.00000011    0.00000006    0.00000029
     atom   37 type  1   force =     0.00000002   -0.00000000    0.00000036
     atom   38 type  1   force =    -0.00000020    0.00000000    0.00000016
     atom   39 type  1   force =    -0.00000026    0.00000000    0.00000053
     atom   40 type  1   force =     0.00000001    0.00000000    0.00000045
     atom   41 type  3   force =     0.00000000   -0.00000000   -0.00000014
     atom   42 type  3   force =     0.00000000    0.00000000    0.00000014
     atom   43 type  3   force =     0.00000010    0.00000000   -0.00000013
     atom   44 type  3   force =     0.00000010    0.00000000    0.00000013
     atom   45 type  3   force =    -0.00000001   -0.00000009   -0.00000006
     atom   46 type  3   force =    -0.00000001   -0.00000009    0.00000006
     atom   47 type  3   force =    -0.00000001    0.00000009   -0.00000006
     atom   48 type  3   force =    -0.00000001    0.00000009    0.00000006

     Total force =     0.000332     Total SCF correction =     0.000004
     Energy error            =      2.3E-07 Ry
     Gradient error          =      8.4E-05 Ry/Bohr

     bfgs converged in   3 scf cycles and   2 bfgs steps
     (criteria: energy <  1.0E-04 Ry, force <  1.0E-04 Ry/Bohr)

     End of BFGS Geometry Optimization

     Final energy             =   -3437.6038831776 Ry

     File /storage/home/mgm6007/ixd4/Maria/Strain1_Files/RuO2-110-0-0124/RuO2-110-0-0124.bfgs deleted, as requested
Begin final coordinates

ATOMIC_POSITIONS (crystal)
O             0.0037207535        0.5000000000        0.2664342761
O             0.4866002367        0.5000000000        0.2674502815
O            -0.0032958746        0.0000000000        0.2902754875
O             0.4984033785        0.0000000000        0.3065925359
Ru            0.2627254952        0.0000000000        0.3576492116
Ru            0.7347927824        0.0000000000        0.3574860122
O             0.2481880375        0.3137220703        0.3572060762
O             0.7514035956        0.3139374823        0.3559942443
Ru            0.0003535493        0.5000000000        0.3581783321
Ru            0.4996750162        0.5000000000        0.3561808072
O             0.2481880375        0.6862779297        0.3572060762
O             0.7514035956        0.6860625177        0.3559942443
O            -0.0015750935        0.0000000000        0.4105167736
O             0.4989737427        0.0000000000        0.4115798179
O            -0.0003599399        0.5000000000        0.4459793680
O             0.5004844612        0.5000000000        0.4448095181
Ru           -0.0016030926        0.0000000000        0.5000010000
Ru            0.4984132430        0.0000000000        0.5000010000
O             0.2474285210        0.1859116418        0.5000010000
O             0.7490331139        0.1859033105        0.5000010000
Ru            0.2509576308        0.5000000000        0.5000010000
Ru            0.7494100377        0.5000000000        0.5000010000
O             0.2474285210        0.8140893582        0.5000010000
O             0.7490331139        0.8140976895        0.5000010000
O            -0.0003599399        0.5000000000        0.5540216320
O             0.5004844612        0.5000000000        0.5551914819
O            -0.0015750935        0.0000000000        0.5894842264
O             0.4989737427        0.0000000000        0.5884211821
Ru            0.2627254952        0.0000000000        0.6423517884
Ru            0.7347927824        0.0000000000        0.6425149878
O             0.2481880375        0.3137220703        0.6427949238
O             0.7514035956        0.3139374823        0.6440067557
Ru            0.0003535493        0.5000000000        0.6418226679
Ru            0.4996750162        0.5000000000        0.6438201928
O             0.2481880375        0.6862779297        0.6427949238
O             0.7514035956        0.6860625177        0.6440067557
O            -0.0032958746        0.0000000000        0.7097265125
O             0.4984033785        0.0000000000        0.6934094641
O             0.0037207535        0.5000000000        0.7335667239
O             0.4866002367        0.5000000000        0.7325507185
H             0.1474416738        0.5000000000        0.2541663397
H             0.1474416738        0.5000000000        0.7458336603
H             0.6245270452        0.5000000000        0.2507108338
H             0.6245270452        0.5000000000        0.7492891662
H            -0.0057155185        0.1366529369        0.2643012208
H            -0.0057155185        0.1366529369        0.7356987792
H            -0.0057155185        0.8633470631        0.2643012208
H            -0.0057155185        0.8633470631        0.7356987792
End final coordinates

     Writing all to output data dir /storage/home/mgm6007/ixd4/Maria/Strain1_Files/RuO2-110-0-0124/RuO2-110-0-0124.save/

     General routines

     Parallel routines

     Environ routines

   This run was terminated on:  21:32:26  18Jul2023

   JOB DONE.