     Program PWSCF v.7.2 starts on 18Jul2023 at 16: 6:41
        Git branch: heads/qe-7.2
        Last git commit: b4c5e8deeb7d1863e7553a87b45f8d22c21926a5
        Last git commit date: Mon Mar 27 16:12:09 2023 +0000
        Last git commit subject: Merge branch 'merge_fix_hubbard' into 'develop'

     Reading input from RuO2-110-0-02.in

     Current dimensions of program PWSCF are:
     Max number of different atomic species (ntypx) = 10
     Max number of k-points (npk) =  40000
     Max angular momentum in pseudopotentials (lmaxx) =  4

     Reading input from environ.in:
     * Environ restarting
     * setting up water environment
     * using electronic solvent mode
     * setting boundary derivatives method to SCCS default

     File /storage/home/mgm6007/ixd4/Maria/Strain1_Files/RuO2-110-0-02/RuO2-110-0-02.update deleted, as requested

     File /storage/home/mgm6007/ixd4/Maria/Strain1_Files/RuO2-110-0-02/RuO2-110-0-02.bfgs deleted, as requested
     file O.pbe-n-kjpaw_psl.0.1.UPF: wavefunction(s)  2P renormalized
     Message from routine setup:
     using ibrav=0 with symmetry is DISCOURAGED, use correct ibrav instead

     R & G space division:  proc/nbgrp/npool/nimage =      20
     Subspace diagonalization in iterative solution of the eigenvalue problem:
     one sub-group per band group will be used

     Using Slab Decomposition

     bravais-lattice index     =            0
     lattice parameter (alat)  =      12.3893  a.u.
     unit-cell volume          =    5808.5831 (a.u.)^3
     number of atoms/cell      =           44
     number of atomic types    =            3
     number of electrons       =       364.00
     number of Kohn-Sham states=          218
     kinetic-energy cutoff     =      50.0000  Ry
     charge density cutoff     =     500.0000  Ry
     scf convergence threshold =      1.0E-09
     mixing beta               =       0.7000
     number of iterations used =            8  local-TF  mixing
     energy convergence thresh.=      1.0E-04
     force convergence thresh. =      1.0E-04
     Exchange-correlation= PBE
                           (   1   4   3   4   0   0   0)
     nstep                     =          200

                                  Environ Setup Summary

          O. Andreussi, I. Dabo and N. Marzari, J. Chem. Phys. 136, 064102 (2012)

     in publications or presentations arising from this work.

     Parameters

     compensation onset threshold      =               0.1000E+00
     static permittivity               =                    78.30
     surface tension in input (dyn/cm) =                    47.90
     surface tension in internal units =               0.6153E-04
     external pressure in input (GPa)  =                    -0.36
     external pressure in inter. units =              -0.2447E-04

     Solvent Boundary

     solvent mode                      =               electronic
     derivatives method                =                    chain
     numerical core for derivatives    =                      fft
     switching function adopted        =                     SCCS
     density limit for vacuum region   =               0.5000E-02
     density limit for bulk solvent    =               0.1000E-03

     Electrostatic Setup

     electrostatic problem to solve    =              generalized
     numerical solver adopted          =                       cg
     type of auxiliary density adopted =                     none
     numerical core for poisson        =                      fft
     type of pbc corrections           =                parabolic
     numerical core for corrections    =                      1da

     celldm(1)=  12.389316  celldm(2)=   0.000000  celldm(3)=   0.000000
     celldm(4)=   0.000000  celldm(5)=   0.000000  celldm(6)=   0.000000

     crystal axes: (cart. coord. in units of alat)
               a(1) = (   1.000000   0.000000   0.000000 )
               a(2) = (   0.000000   0.904766   0.000000 )
               a(3) = (   0.000000   0.000000   3.375918 )

     reciprocal axes: (cart. coord. in units 2 pi/alat)
               b(1) = (  1.000000  0.000000  0.000000 )
               b(2) = (  0.000000  1.105258  0.000000 )
               b(3) = (  0.000000  0.000000  0.296216 )

     PseudoPot. # 1 for O  read from file:
     /gpfs/group/ixd4/default/Simon/pseudopotentials/materialscloud/SSSP_1.3.0_PBE_efficiency/O.pbe-n-kjpaw_psl.0.1.UPF
     MD5 check sum: 0234752ac141de4415c5fc33072bef88
     Pseudo is Projector augmented-wave + core cor, Zval =  6.0
     Generated using "atomic" code by A. Dal Corso  v.5.0.99 svn rev. 10869
     Shape of augmentation charge: BESSEL
     Using radial grid of 1095 points,  4 beta functions with:
                l(1) =   0
                l(2) =   0
                l(3) =   1
                l(4) =   1
     Q(r) pseudized with 0 coefficients

     PseudoPot. # 2 for Ru read from file:
     /gpfs/group/ixd4/default/Simon/pseudopotentials/materialscloud/SSSP_1.3.0_PBE_efficiency/Ru_ONCV_PBE-1.0.oncvpsp.upf
     MD5 check sum: be037bb81c227cfb9b1461a9f099f4bd
     Pseudo is Norm-conserving, Zval = 16.0
     Generated using ONCVPSP code by D. R. Hamann
     Using radial grid of 1458 points,  6 beta functions with:
                l(1) =   0
                l(2) =   0
                l(3) =   1
                l(4) =   1
                l(5) =   2
                l(6) =   2

     PseudoPot. # 3 for H  read from file:
     /gpfs/group/ixd4/default/Simon/pseudopotentials/materialscloud/SSSP_1.3.0_PBE_efficiency/H.pbe-rrkjus_psl.1.0.0.UPF
     MD5 check sum: f52b6d4d1c606e5624b1dc7b2218f220
     Pseudo is Ultrasoft, Zval =  1.0
     Generated using "atomic" code by A. Dal Corso  v.5.1
     Using radial grid of  929 points,  2 beta functions with:
                l(1) =   0
                l(2) =   0
     Q(r) pseudized with 0 coefficients

     atomic species   valence    mass     pseudopotential
        O              6.00    15.99940     O ( 1.00)
        Ru            16.00   101.07000     Ru( 1.00)
        H              1.00     1.00794     H ( 1.00)

      2 Sym. Ops. (no inversion) found

   Cartesian axes

     site n.     atom                  positions (alat units)
         1           O   tau(   1) = (  -0.0052426   0.4075207   0.9145393  )
         2           O   tau(   2) = (   0.4971613   0.4435552   0.9243363  )
         3           O   tau(   3) = (   0.0008712   0.0066463   1.0120170  )
         4           O   tau(   4) = (   0.5003544  -0.0006797   1.0392039  )
         5           Ru  tau(   5) = (   0.2581750  -0.0002632   1.2028916  )
         6           Ru  tau(   6) = (   0.7429298  -0.0001828   1.2024589  )
         7           O   tau(   7) = (   0.2501838   0.2826740   1.2241406  )
         8           O   tau(   8) = (   0.7517044   0.2820658   1.2176695  )
         9           Ru  tau(   9) = (  -0.0003397   0.4510661   1.2103377  )
        10           Ru  tau(  10) = (   0.5006431   0.4509782   1.1859216  )
        11           O   tau(  11) = (   0.2436045   0.6219078   1.2002256  )
        12           O   tau(  12) = (   0.7564992   0.6209566   1.2040273  )
        13           O   tau(  13) = (   0.0001011  -0.0019376   1.3891053  )
        14           O   tau(  14) = (   0.5005945  -0.0039682   1.3901534  )
        15           O   tau(  15) = (   0.0045322   0.4547613   1.5083593  )
        16           O   tau(  16) = (   0.5035787   0.4560065   1.4982619  )
        17           Ru  tau(  17) = (   0.0001922   0.0000570   1.6879622  )
        18           Ru  tau(  18) = (   0.5003510   0.0009432   1.6879622  )
        19           O   tau(  19) = (   0.2493156   0.1693619   1.6879622  )
        20           O   tau(  20) = (   0.7494670   0.1693036   1.6879622  )
        21           Ru  tau(  21) = (   0.2556839   0.4533542   1.6879622  )
        22           Ru  tau(  22) = (   0.7514593   0.4535211   1.6879622  )
        23           O   tau(  23) = (   0.2499185   0.7373586   1.6879622  )
        24           O   tau(  24) = (   0.7494954   0.7371177   1.6879622  )
        25           O   tau(  25) = (   0.0045322   0.4547613   1.8675616  )
        26           O   tau(  26) = (   0.5035787   0.4560065   1.8776590  )
        27           O   tau(  27) = (   0.0001011  -0.0019376   1.9868157  )
        28           O   tau(  28) = (   0.5005945  -0.0039682   1.9857675  )
        29           Ru  tau(  29) = (   0.2581750  -0.0002632   2.1730293  )
        30           Ru  tau(  30) = (   0.7429298  -0.0001828   2.1734620  )
        31           O   tau(  31) = (   0.2501838   0.2826740   2.1517803  )
        32           O   tau(  32) = (   0.7517044   0.2820658   2.1582514  )
        33           Ru  tau(  33) = (  -0.0003397   0.4510661   2.1655832  )
        34           Ru  tau(  34) = (   0.5006431   0.4509782   2.1899993  )
        35           O   tau(  35) = (   0.2436045   0.6219078   2.1756953  )
        36           O   tau(  36) = (   0.7564992   0.6209566   2.1718936  )
        37           O   tau(  37) = (   0.0008712   0.0066463   2.3639073  )
        38           O   tau(  38) = (   0.5003544  -0.0006797   2.3367204  )
        39           O   tau(  39) = (  -0.0052426   0.4075207   2.4613816  )
        40           O   tau(  40) = (   0.4971613   0.4435552   2.4515847  )
        41           H   tau(  41) = (   0.1086664   0.4695177   0.8406483  )
        42           H   tau(  42) = (   0.1086664   0.4695177   2.5352693  )
        43           H   tau(  43) = (   0.0006761   0.1355705   0.9300492  )
        44           H   tau(  44) = (   0.0006761   0.1355705   2.4458684  )

     number of k points=     2  Marzari-Vanderbilt smearing, width (Ry)=  0.0300
                       cart. coord. in units 2pi/alat
        k(    1) = (   0.2500000   0.2763144   0.0000000), wk =   1.0000000
        k(    2) = (  -0.2500000   0.2763144   0.0000000), wk =   1.0000000

     Check: negative core charge=   -0.000001

     Initial potential from superposition of free atoms

     starting charge     363.9933, renormalised to     364.0000

     add environment contribution to local potential
     Polarization accuracy = 4.9E-12, # of iterations =  24

     negative rho (up, down):  3.395E-05 0.000E+00
     Starting wfcs are  236 randomized atomic wfcs
     Checking if some PAW data can be deallocated...

     Self-consistent Calculation

     iteration #  1     ecut=    50.00 Ry     beta= 0.70
     Davidson diagonalization with overlap
     ethr =  1.00E-02,  avg # of iterations =  2.0

     total energy              =   -3430.05297651 Ry
     estimated scf accuracy    <      10.08273859 Ry
     electrostatic embedding   =      -0.00170325 Ry
     cavitation energy         =       0.01946813 Ry
     PV energy                 =      -0.08241782 Ry
     correction to one-el term =     218.58902650 Ry

[...]

     negative rho (up, down):  4.133E-06 0.000E+00

[...]

     the potential shift due to the Gaussian-smeared nuclei is    -1.3393 ev

     End of self-consistent calculation

          k = 0.2500 0.2763 0.0000 ( 34692 PWs)   bands (ev):

   -78.8522 -78.8394 -78.3532 -78.3409 -78.3329 -78.3206 -78.1883 -78.1758
[...]
     atom    8 type  1   force =     0.15012631    0.25503672   61.41327305
     atom    9 type  2   force =    -0.20669190   -1.74479469  170.25779673
     atom   10 type  2   force =     0.04661640   -1.34521628  175.82778153
     atom   11 type  1   force =     0.00892350   -0.51891295   66.27237113
     atom   12 type  1   force =     0.05371178   -0.70812951   65.54208637
     atom   13 type  1   force =    -0.00892860    0.36347865   39.81060434
     atom   14 type  1   force =     0.00313529    0.43890077   38.03590314
     atom   15 type  1   force =     0.04305755   -0.24462709   25.27607950
     atom   16 type  1   force =     0.00750385   -0.27990140   27.32704339
     atom   17 type  2   force =     0.13627372   -0.29076593   -0.00589745
     atom   18 type  2   force =     0.13700298   -0.49392503   -0.00587166
     atom   19 type  1   force =     0.00975187   -0.47645386   -0.00247281
     atom   20 type  1   force =    -0.03431571   -0.54171778   -0.00247450
     atom   21 type  2   force =    -1.37934224    0.00379714   -0.00606650
     atom   22 type  2   force =     0.71899910    0.17494965   -0.00606988
     atom   23 type  1   force =     0.04975578    0.53763750   -0.00247932
     atom   24 type  1   force =    -0.03488299    0.49317641   -0.00247971
     atom   25 type  1   force =     0.04304703   -0.24463450  -25.27785282
     atom   26 type  1   force =     0.00750012   -0.27991289  -27.32883914
     atom   27 type  1   force =    -0.00893004    0.36348018  -39.81239161
     atom   28 type  1   force =     0.00313489    0.43889910  -38.03765364
     atom   29 type  2   force =     3.21826903    0.94899863 -175.19459199
     atom   30 type  2   force =    -3.15087133    1.21591877 -175.22075149
     atom   31 type  1   force =    -0.02427120    0.25749463  -60.39390564
     atom   32 type  1   force =     0.15010858    0.25503817  -61.41573417
     atom   33 type  2   force =    -0.20669586   -1.74484925 -170.26366246
     atom   34 type  2   force =     0.04661005   -1.34521824 -175.83354243
     atom   35 type  1   force =     0.00895727   -0.51891845  -66.27484516
     atom   36 type  1   force =     0.05368123   -0.70813506  -65.54456368
     atom   37 type  1   force =    -0.02484645    2.13145160  -92.52878605
     atom   38 type  1   force =    -0.00050865    0.28920919  -94.41310020
     atom   39 type  1   force =     1.00816857    0.15811214  -95.98087236
     atom   40 type  1   force =    -0.04959169    0.01024632 -100.93621529
     atom   41 type  3   force =    -2.38891761   -1.37203191   16.78429570
     atom   42 type  3   force =    -2.38891761   -1.37203191  -16.78429570
     atom   43 type  3   force =     0.00420944   -1.59412154   17.03491189
     atom   44 type  3   force =     0.00420944   -1.59412154  -17.03491189
     The core correction contribution to forces
     atom    1 type  1   force =    -0.01563965   -0.00722401   -0.00190984
     atom    2 type  1   force =     0.00012835   -0.00027183   -0.01111052
     atom    3 type  1   force =     0.00006899   -0.01368851   -0.00166757
     atom    4 type  1   force =     0.00001186   -0.00014889   -0.01123170
     atom    5 type  2   force =     0.00000000    0.00000000    0.00000000
     atom    6 type  2   force =     0.00000000    0.00000000    0.00000000
     atom    7 type  1   force =    -0.00117097    0.00024148    0.00231600
     atom    8 type  1   force =     0.00115319    0.00032010    0.00182232
     atom    9 type  2   force =     0.00000000    0.00000000    0.00000000
     atom   10 type  2   force =     0.00000000    0.00000000    0.00000000
     atom   11 type  1   force =    -0.00066628   -0.00002877   -0.00015229
     atom   12 type  1   force =     0.00063271    0.00012214   -0.00020591
     atom   13 type  1   force =     0.00001701   -0.00002966   -0.00140056
     atom   14 type  1   force =     0.00003391   -0.00059739    0.00045380
     atom   15 type  1   force =     0.00023343    0.00035027    0.00045214
     atom   16 type  1   force =     0.00010944    0.00012316   -0.00283407
     atom   17 type  2   force =     0.00000000    0.00000000    0.00000000
     atom   18 type  2   force =     0.00000000    0.00000000    0.00000000
     atom   19 type  1   force =    -0.00040780   -0.00030409   -0.00000212
     atom   20 type  1   force =     0.00004656   -0.00028899   -0.00000213
     atom   21 type  2   force =     0.00000000    0.00000000    0.00000000
     atom   22 type  2   force =     0.00000000    0.00000000    0.00000000
     atom   23 type  1   force =    -0.00026955    0.00034969   -0.00000204
     atom   24 type  1   force =    -0.00009759    0.00030204   -0.00000208
     atom   25 type  1   force =     0.00023339    0.00035043   -0.00045438
     atom   26 type  1   force =     0.00010944    0.00012314    0.00283202
     atom   27 type  1   force =     0.00001701   -0.00002967    0.00139830
     atom   28 type  1   force =     0.00003392   -0.00059749   -0.00045619
     atom   29 type  2   force =     0.00000000    0.00000000    0.00000000
     atom   30 type  2   force =     0.00000000    0.00000000    0.00000000
     atom   31 type  1   force =    -0.00117095    0.00024141   -0.00231765
     atom   32 type  1   force =     0.00115315    0.00032006   -0.00182410
     atom   33 type  2   force =     0.00000000    0.00000000    0.00000000
     atom   34 type  2   force =     0.00000000    0.00000000    0.00000000
     atom   35 type  1   force =    -0.00066611   -0.00002872    0.00015039
     atom   36 type  1   force =     0.00063262    0.00012216    0.00020409
     atom   37 type  1   force =     0.00006900   -0.01369034    0.00166385
     atom   38 type  1   force =     0.00001185   -0.00014905    0.01122741
     atom   39 type  1   force =    -0.01564027   -0.00722427    0.00190716
     atom   40 type  1   force =     0.00012836   -0.00027186    0.01110882
     atom   41 type  3   force =     0.00000000    0.00000000    0.00000000
     atom   42 type  3   force =     0.00000000    0.00000000    0.00000000
     atom   43 type  3   force =     0.00000000    0.00000000    0.00000000
     atom   44 type  3   force =     0.00000000    0.00000000    0.00000000
     The Hubbard contrib.    to forces
     atom    1 type  1   force =     0.00000000    0.00000000    0.00000000
     atom    2 type  1   force =     0.00000000    0.00000000    0.00000000
     atom    3 type  1   force =     0.00000000    0.00000000    0.00000000
     atom    4 type  1   force =     0.00000000    0.00000000    0.00000000
     atom    5 type  2   force =     0.00000000    0.00000000    0.00000000
     atom    6 type  2   force =     0.00000000    0.00000000    0.00000000
     atom    7 type  1   force =     0.00000000    0.00000000    0.00000000
     atom    8 type  1   force =     0.00000000    0.00000000    0.00000000
     atom    9 type  2   force =     0.00000000    0.00000000    0.00000000
     atom   10 type  2   force =     0.00000000    0.00000000    0.00000000
     atom   11 type  1   force =     0.00000000    0.00000000    0.00000000
     atom   12 type  1   force =     0.00000000    0.00000000    0.00000000
     atom   13 type  1   force =     0.00000000    0.00000000    0.00000000
     atom   14 type  1   force =     0.00000000    0.00000000    0.00000000
     atom   15 type  1   force =     0.00000000    0.00000000    0.00000000
     atom   16 type  1   force =     0.00000000    0.00000000    0.00000000
     atom   17 type  2   force =     0.00000000    0.00000000    0.00000000
     atom   18 type  2   force =     0.00000000    0.00000000    0.00000000
     atom   19 type  1   force =     0.00000000    0.00000000    0.00000000
     atom   20 type  1   force =     0.00000000    0.00000000    0.00000000
     atom   21 type  2   force =     0.00000000    0.00000000    0.00000000
     atom   22 type  2   force =     0.00000000    0.00000000    0.00000000
     atom   23 type  1   force =     0.00000000    0.00000000    0.00000000
     atom   24 type  1   force =     0.00000000    0.00000000    0.00000000
     atom   25 type  1   force =     0.00000000    0.00000000    0.00000000
     atom   26 type  1   force =     0.00000000    0.00000000    0.00000000
     atom   27 type  1   force =     0.00000000    0.00000000    0.00000000
     atom   28 type  1   force =     0.00000000    0.00000000    0.00000000
     atom   29 type  2   force =     0.00000000    0.00000000    0.00000000
     atom   30 type  2   force =     0.00000000    0.00000000    0.00000000
     atom   31 type  1   force =     0.00000000    0.00000000    0.00000000
     atom   32 type  1   force =     0.00000000    0.00000000    0.00000000
     atom   33 type  2   force =     0.00000000    0.00000000    0.00000000
     atom   34 type  2   force =     0.00000000    0.00000000    0.00000000
     atom   35 type  1   force =     0.00000000    0.00000000    0.00000000
     atom   36 type  1   force =     0.00000000    0.00000000    0.00000000
     atom   37 type  1   force =     0.00000000    0.00000000    0.00000000
     atom   38 type  1   force =     0.00000000    0.00000000    0.00000000
     atom   39 type  1   force =     0.00000000    0.00000000    0.00000000
     atom   40 type  1   force =     0.00000000    0.00000000    0.00000000
     atom   41 type  3   force =     0.00000000    0.00000000    0.00000000
     atom   42 type  3   force =     0.00000000    0.00000000    0.00000000
     atom   43 type  3   force =     0.00000000    0.00000000    0.00000000
     atom   44 type  3   force =     0.00000000    0.00000000    0.00000000
     The SCF correction term to forces
     atom    1 type  1   force =     0.00000077    0.00000024    0.00000121
     atom    2 type  1   force =    -0.00000077    0.00000023    0.00000096
     atom    3 type  1   force =     0.00000068   -0.00000021    0.00000115
     atom    4 type  1   force =    -0.00000069   -0.00000020    0.00000131
     atom    5 type  2   force =    -0.00000094   -0.00000044    0.00000265
     atom    6 type  2   force =     0.00000093   -0.00000023    0.00000327
     atom    7 type  1   force =    -0.00000049   -0.00000046    0.00000117
     atom    8 type  1   force =     0.00000055   -0.00000038    0.00000153
     atom    9 type  2   force =     0.00000141    0.00000025    0.00000328
     atom   10 type  2   force =    -0.00000150    0.00000063    0.00000414
     atom   11 type  1   force =    -0.00000037    0.00000055    0.00000097
     atom   12 type  1   force =     0.00000044    0.00000039    0.00000148
     atom   13 type  1   force =     0.00000039   -0.00000005    0.00000059
     atom   14 type  1   force =    -0.00000047   -0.00000002    0.00000088
     atom   15 type  1   force =     0.00000032    0.00000001    0.00000078
     atom   16 type  1   force =    -0.00000017   -0.00000003    0.00000117
     atom   17 type  2   force =     0.00000054   -0.00000023   -0.00000001
     atom   18 type  2   force =    -0.00000019    0.00000006   -0.00000002
     atom   19 type  1   force =    -0.00000010    0.00000026   -0.00000001
     atom   20 type  1   force =    -0.00000004    0.00000020   -0.00000001
     atom   21 type  2   force =    -0.00000059   -0.00000024   -0.00000001
     atom   22 type  2   force =    -0.00000002   -0.00000012   -0.00000001
     atom   23 type  1   force =    -0.00000024   -0.00000009   -0.00000001
     atom   24 type  1   force =     0.00000006   -0.00000008   -0.00000001
     atom   25 type  1   force =     0.00000032    0.00000001   -0.00000079
     atom   26 type  1   force =    -0.00000017   -0.00000003   -0.00000118
     atom   27 type  1   force =     0.00000039   -0.00000005   -0.00000060
     atom   28 type  1   force =    -0.00000047   -0.00000002   -0.00000089
     atom   29 type  2   force =    -0.00000095   -0.00000044   -0.00000266
     atom   30 type  2   force =     0.00000093   -0.00000023   -0.00000329
     atom   31 type  1   force =    -0.00000049   -0.00000046   -0.00000118
     atom   32 type  1   force =     0.00000055   -0.00000038   -0.00000153
     atom   33 type  2   force =     0.00000141    0.00000025   -0.00000330
     atom   34 type  2   force =    -0.00000150    0.00000063   -0.00000415
     atom   35 type  1   force =    -0.00000037    0.00000055   -0.00000098
     atom   36 type  1   force =     0.00000045    0.00000039   -0.00000148
     atom   37 type  1   force =     0.00000068   -0.00000021   -0.00000115
     atom   38 type  1   force =    -0.00000069   -0.00000020   -0.00000131
     atom   39 type  1   force =     0.00000077    0.00000025   -0.00000121
     atom   40 type  1   force =    -0.00000077    0.00000023   -0.00000095
     atom   41 type  3   force =     0.00000002    0.00000004    0.00000017
     atom   42 type  3   force =     0.00000002    0.00000004   -0.00000017
     atom   43 type  3   force =     0.00000008   -0.00000009    0.00000020
     atom   44 type  3   force =     0.00000008   -0.00000009   -0.00000020

     Total force =     0.000379     Total SCF correction =     0.000012
     Energy error            =      1.3E-07 Ry
     Gradient error          =      9.9E-05 Ry/Bohr

     bfgs converged in  32 scf cycles and  31 bfgs steps
     (criteria: energy <  1.0E-04 Ry, force <  1.0E-04 Ry/Bohr)

     End of BFGS Geometry Optimization

     Final energy             =   -3432.5888081211 Ry

     File /storage/home/mgm6007/ixd4/Maria/Strain1_Files/RuO2-110-0-02/RuO2-110-0-02.bfgs deleted, as requested
Begin final coordinates

ATOMIC_POSITIONS (crystal)
O            -0.0059552856        0.4451196342        0.2710849798
O             0.4988680839        0.4899619127        0.2736071090
O             0.0000722436        0.0071852438        0.2997516892
O             0.5002189301       -0.0004845474        0.3077990101
Ru            0.2576792015       -0.0007599221        0.3562027806
Ru            0.7427658302       -0.0007602223        0.3561767428
O             0.2509232317        0.3121780597        0.3628730853
O             0.7506765382        0.3113024180        0.3612200474
Ru           -0.0006212150        0.4978154262        0.3586255498
Ru            0.5003501930        0.4980358156        0.3511002108
O             0.2430502619        0.6868222938        0.3548632013
O             0.7569632505        0.6859109896        0.3560655577
O            -0.0000262180       -0.0016658565        0.4114920491
O             0.5001665024       -0.0048298036        0.4117245553
O             0.0052880878        0.5048246518        0.4467693697
O             0.5045252680        0.5071869867        0.4437383351
Ru            0.0002982819        0.0031236732        0.5000010000
Ru            0.5003964373        0.0036127907        0.5000010000
O             0.2496835115        0.1902085706        0.5000010000
O             0.7492347284        0.1901464355        0.5000010000
Ru            0.2569027533        0.5041436964        0.5000010000
Ru            0.7518106818        0.5043134526        0.5000010000
O             0.2497059570        0.8178901662        0.5000010000
O             0.7497872667        0.8176871044        0.5000010000
O             0.0052880878        0.5048246518        0.5532316303
O             0.5045252680        0.5071869867        0.5562626649
O            -0.0000262180       -0.0016658565        0.5885089509
O             0.5001665024       -0.0048298036        0.5882764447
Ru            0.2576792015       -0.0007599221        0.6437982194
Ru            0.7427658302       -0.0007602223        0.6438242572
O             0.2509232317        0.3121780597        0.6371279147
O             0.7506765382        0.3113024180        0.6387809526
Ru           -0.0006212150        0.4978154262        0.6413754502
Ru            0.5003501930        0.4980358156        0.6489007892
O             0.2430502619        0.6868222938        0.6451377987
O             0.7569632505        0.6859109896        0.6439354423
O             0.0000722436        0.0071852438        0.7002503108
O             0.5002189301       -0.0004845474        0.6922029899
O            -0.0059552856        0.4451196342        0.7289160202
O             0.4988680839        0.4899619127        0.7263938910
H             0.1094865772        0.5096116864        0.2490482408
H             0.1094865772        0.5096116864        0.7509517592
H            -0.0007062904        0.1511992888        0.2758758281
H            -0.0007062904        0.1511992888        0.7241241719
End final coordinates

     Writing all to output data dir /storage/home/mgm6007/ixd4/Maria/Strain1_Files/RuO2-110-0-02/RuO2-110-0-02.save/

     General routines

     Parallel routines

     Environ routines

   This run was terminated on:  21:19:38  20Jul2023

   JOB DONE.