     Program PWSCF v.7.2 starts on 21Jul2023 at 11:31:16
        Git branch: heads/qe-7.2
        Last git commit: b4c5e8deeb7d1863e7553a87b45f8d22c21926a5
        Last git commit date: Mon Mar 27 16:12:09 2023 +0000
        Last git commit subject: Merge branch 'merge_fix_hubbard' into 'develop'

     Reading input from RuO2-110-0-01234.in

     Current dimensions of program PWSCF are:
     Max number of different atomic species (ntypx) = 10
     Max number of k-points (npk) =  40000
     Max angular momentum in pseudopotentials (lmaxx) =  4

     Reading input from environ.in:
     * Environ restarting
     * setting up water environment
     * using electronic solvent mode
     * setting boundary derivatives method to SCCS default

     file O.pbe-n-kjpaw_psl.0.1.UPF: wavefunction(s)  2P renormalized
     Message from routine setup:
     using ibrav=0 with symmetry is DISCOURAGED, use correct ibrav instead

     R & G space division:  proc/nbgrp/npool/nimage =      20
     Subspace diagonalization in iterative solution of the eigenvalue problem:
     one sub-group per band group will be used

     Using Slab Decomposition

     bravais-lattice index     =            0
     lattice parameter (alat)  =      12.1041  a.u.
     unit-cell volume          =    5954.5483 (a.u.)^3
     number of atoms/cell      =           50
     number of atomic types    =            3
     number of electrons       =       370.00
     number of Kohn-Sham states=          222
     kinetic-energy cutoff     =      50.0000  Ry
     charge density cutoff     =     500.0000  Ry
     scf convergence threshold =      1.0E-09
     mixing beta               =       0.7000
     number of iterations used =            8  local-TF  mixing
     energy convergence thresh.=      1.0E-04
     force convergence thresh. =      1.0E-04
     Exchange-correlation= PBE
                           (   1   4   3   4   0   0   0)
     nstep                     =          200

                                  Environ Setup Summary

          O. Andreussi, I. Dabo and N. Marzari, J. Chem. Phys. 136, 064102 (2012)

     in publications or presentations arising from this work.

     Parameters

     compensation onset threshold      =               0.1000E+00
     static permittivity               =                    78.30
     surface tension in input (dyn/cm) =                    47.90
     surface tension in internal units =               0.6153E-04
     external pressure in input (GPa)  =                    -0.36
     external pressure in inter. units =              -0.2447E-04

     Solvent Boundary

     solvent mode                      =               electronic
     derivatives method                =                    chain
     numerical core for derivatives    =                      fft
     switching function adopted        =                     SCCS
     density limit for vacuum region   =               0.5000E-02
     density limit for bulk solvent    =               0.1000E-03

     Electrostatic Setup

     electrostatic problem to solve    =              generalized
     numerical solver adopted          =                       cg
     type of auxiliary density adopted =                     none
     numerical core for poisson        =                      fft
     type of pbc corrections           =                parabolic
     numerical core for corrections    =                      1da

     celldm(1)=  12.104053  celldm(2)=   0.000000  celldm(3)=   0.000000
     celldm(4)=   0.000000  celldm(5)=   0.000000  celldm(6)=   0.000000

     crystal axes: (cart. coord. in units of alat)
               a(1) = (   1.000000   0.000000   0.000000 )
               a(2) = (   0.000000   0.971735   0.000000 )
               a(3) = (   0.000000   0.000000   3.455479 )

     reciprocal axes: (cart. coord. in units 2 pi/alat)
               b(1) = (  1.000000  0.000000  0.000000 )
               b(2) = (  0.000000  1.029087  0.000000 )
               b(3) = (  0.000000  0.000000  0.289395 )

     PseudoPot. # 1 for O  read from file:
     /gpfs/group/ixd4/default/Simon/pseudopotentials/materialscloud/SSSP_1.3.0_PBE_efficiency/O.pbe-n-kjpaw_psl.0.1.UPF
     MD5 check sum: 0234752ac141de4415c5fc33072bef88
     Pseudo is Projector augmented-wave + core cor, Zval =  6.0
     Generated using "atomic" code by A. Dal Corso  v.5.0.99 svn rev. 10869
     Shape of augmentation charge: BESSEL
     Using radial grid of 1095 points,  4 beta functions with:
                l(1) =   0
                l(2) =   0
                l(3) =   1
                l(4) =   1
     Q(r) pseudized with 0 coefficients

     PseudoPot. # 2 for Ru read from file:
     /gpfs/group/ixd4/default/Simon/pseudopotentials/materialscloud/SSSP_1.3.0_PBE_efficiency/Ru_ONCV_PBE-1.0.oncvpsp.upf
     MD5 check sum: be037bb81c227cfb9b1461a9f099f4bd
     Pseudo is Norm-conserving, Zval = 16.0
     Generated using ONCVPSP code by D. R. Hamann
     Using radial grid of 1458 points,  6 beta functions with:
                l(1) =   0
                l(2) =   0
                l(3) =   1
                l(4) =   1
                l(5) =   2
                l(6) =   2

     PseudoPot. # 3 for H  read from file:
     /gpfs/group/ixd4/default/Simon/pseudopotentials/materialscloud/SSSP_1.3.0_PBE_efficiency/H.pbe-rrkjus_psl.1.0.0.UPF
     MD5 check sum: f52b6d4d1c606e5624b1dc7b2218f220
     Pseudo is Ultrasoft, Zval =  1.0
     Generated using "atomic" code by A. Dal Corso  v.5.1
     Using radial grid of  929 points,  2 beta functions with:
                l(1) =   0
                l(2) =   0
     Q(r) pseudized with 0 coefficients

     atomic species   valence    mass     pseudopotential
        O              6.00    15.99940     O ( 1.00)
        Ru            16.00   101.07000     Ru( 1.00)
        H              1.00     1.00794     H ( 1.00)

      2 Sym. Ops. (no inversion) found

   Cartesian axes

     site n.     atom                  positions (alat units)
         1           O   tau(   1) = (   0.0405757   0.4251936   0.9064855  )
         2           O   tau(   2) = (   0.4564738   0.4192848   0.9202919  )
         3           O   tau(   3) = (  -0.0010160   0.0133221   1.0265502  )
         4           O   tau(   4) = (   0.4969067   0.0123952   1.0336311  )
         5           Ru  tau(   5) = (   0.2483419  -0.0075822   1.2393311  )
         6           Ru  tau(   6) = (   0.7480010  -0.0082287   1.2365427  )
         7           O   tau(   7) = (   0.2475741   0.2838096   1.2514406  )
         8           O   tau(   8) = (   0.7496737   0.2922014   1.2377880  )
         9           Ru  tau(   9) = (   0.0034238   0.4768308   1.2441801  )
        10           Ru  tau(  10) = (   0.4933857   0.4755936   1.2333178  )
        11           O   tau(  11) = (   0.2470595   0.6717810   1.2228121  )
        12           O   tau(  12) = (   0.7497529   0.6635138   1.2141936  )
        13           O   tau(  13) = (  -0.0036563  -0.0111858   1.4228977  )
        14           O   tau(  14) = (   0.4996244  -0.0088772   1.4212702  )
        15           O   tau(  15) = (  -0.0024047   0.4916164   1.5410663  )
        16           O   tau(  16) = (   0.4993397   0.4914896   1.5329890  )
        17           Ru  tau(  17) = (  -0.0028380   0.0021320   1.7277432  )
        18           Ru  tau(  18) = (   0.4993253   0.0021048   1.7277432  )
        19           O   tau(  19) = (   0.2485968   0.1903511   1.7277432  )
        20           O   tau(  20) = (   0.7474699   0.1925039   1.7277432  )
        21           Ru  tau(  21) = (   0.2516543   0.4894964   1.7277432  )
        22           Ru  tau(  22) = (   0.7452230   0.4903092   1.7277432  )
        23           O   tau(  23) = (   0.2495027   0.7871386   1.7277432  )
        24           O   tau(  24) = (   0.7472806   0.7855697   1.7277432  )
        25           O   tau(  25) = (  -0.0024047   0.4916164   1.9144166  )
        26           O   tau(  26) = (   0.4993397   0.4914896   1.9224940  )
        27           O   tau(  27) = (  -0.0036563  -0.0111858   2.0325853  )
        28           O   tau(  28) = (   0.4996244  -0.0088772   2.0342128  )
        29           Ru  tau(  29) = (   0.2483419  -0.0075822   2.2161518  )
        30           Ru  tau(  30) = (   0.7480010  -0.0082287   2.2189402  )
        31           O   tau(  31) = (   0.2475741   0.2838096   2.2040424  )
        32           O   tau(  32) = (   0.7496737   0.2922014   2.2176949  )
        33           Ru  tau(  33) = (   0.0034238   0.4768308   2.2113029  )
        34           Ru  tau(  34) = (   0.4933857   0.4755936   2.2221651  )
        35           O   tau(  35) = (   0.2470595   0.6717810   2.2326709  )
        36           O   tau(  36) = (   0.7497529   0.6635138   2.2412893  )
        37           O   tau(  37) = (  -0.0010160   0.0133221   2.4289362  )
        38           O   tau(  38) = (   0.4969067   0.0123952   2.4218553  )
        39           O   tau(  39) = (   0.0405757   0.4251936   2.5489974  )
        40           O   tau(  40) = (   0.4564738   0.4192848   2.5351911  )
        41           H   tau(  41) = (   0.1995373   0.4317394   0.8886478  )
        42           H   tau(  42) = (   0.1995373   0.4317394   2.5668317  )
        43           H   tau(  43) = (   0.5655914   0.4784036   0.8342859  )
        44           H   tau(  44) = (   0.5655914   0.4784036   2.6211936  )
        45           H   tau(  45) = (   0.0094425   0.2815657   0.9033972  )
        46           H   tau(  46) = (   0.0094425   0.2815657   2.5520823  )
        47           H   tau(  47) = (   0.4943102   0.1461224   0.9680624  )
        48           H   tau(  48) = (   0.4943102   0.1461224   2.4874171  )
        49           H   tau(  49) = (   0.0002254   0.8819473   0.9200231  )
        50           H   tau(  50) = (   0.0002254   0.8819473   2.5354564  )

     number of k points=     2  Marzari-Vanderbilt smearing, width (Ry)=  0.0300
                       cart. coord. in units 2pi/alat
        k(    1) = (   0.2500000   0.2572717   0.0000000), wk =   1.0000000
        k(    2) = (  -0.2500000   0.2572717   0.0000000), wk =   1.0000000

     Check: negative core charge=   -0.000001

     Initial potential from superposition of free atoms

     starting charge     369.9932, renormalised to     370.0000

     add environment contribution to local potential
     Polarization accuracy = 6.0E-12, # of iterations =  24

     negative rho (up, down):  2.496E-05 0.000E+00
     Starting wfcs are  242 randomized atomic wfcs
     Checking if some PAW data can be deallocated...

     Self-consistent Calculation

     iteration #  1     ecut=    50.00 Ry     beta= 0.70
     Davidson diagonalization with overlap
     ethr =  1.00E-02,  avg # of iterations =  3.0

     negative rho (up, down):  3.075E-08 0.000E+00

     total energy              =   -3438.39489809 Ry
     estimated scf accuracy    <       8.44952239 Ry
     electrostatic embedding   =      -0.00192865 Ry
     cavitation energy         =       0.02002063 Ry
     PV energy                 =      -0.08853660 Ry
     correction to one-el term =     221.50976670 Ry

[...]

[...]
     atom   37 type  1   force =     0.45423496    0.72897924  -89.91337720
     atom   38 type  1   force =    -0.49101632    2.57370383  -90.66340514
     atom   39 type  1   force =     2.41598289   -1.93331123  -90.66881306
     atom   40 type  1   force =    -0.64938438   -0.25812038  -91.56591947
     atom   41 type  3   force =    -2.15746837   -0.47527512   15.30543483
     atom   42 type  3   force =    -2.15746837   -0.47527512  -15.30543483
     atom   43 type  3   force =    -2.48435185   -1.52042665   16.22273760
     atom   44 type  3   force =    -2.48435185   -1.52042665  -16.22273760
     atom   45 type  3   force =     0.76225486    2.70132679   15.06395918
     atom   46 type  3   force =     0.76225486    2.70132679  -15.06395918
     atom   47 type  3   force =    -0.15291744   -1.72331964   16.25954021
     atom   48 type  3   force =    -0.15291744   -1.72331964  -16.25954021
     atom   49 type  3   force =     0.06138575    2.41017878   17.12598065
     atom   50 type  3   force =     0.06138575    2.41017878  -17.12598065
     The core correction contribution to forces
     atom    1 type  1   force =    -0.01115812    0.01307401   -0.00409937
     atom    2 type  1   force =    -0.01315499   -0.00762626    0.00251516
     atom    3 type  1   force =    -0.00005729    0.01356275    0.00403019
     atom    4 type  1   force =     0.00014498   -0.01325180   -0.00263399
     atom    5 type  2   force =     0.00000000    0.00000000    0.00000000
     atom    6 type  2   force =     0.00000000    0.00000000    0.00000000
     atom    7 type  1   force =     0.00012900   -0.00028023    0.00134011
     atom    8 type  1   force =    -0.00003158    0.00018689    0.00055554
     atom    9 type  2   force =     0.00000000    0.00000000    0.00000000
     atom   10 type  2   force =     0.00000000    0.00000000    0.00000000
     atom   11 type  1   force =     0.00014895    0.00029888   -0.00071730
     atom   12 type  1   force =     0.00000745   -0.00030401   -0.00096191
     atom   13 type  1   force =    -0.00006051   -0.00079077    0.00028714
     atom   14 type  1   force =     0.00009999   -0.00027357    0.00068984
     atom   15 type  1   force =     0.00008226    0.00066842    0.00192055
     atom   16 type  1   force =    -0.00001865    0.00066249   -0.00012620
     atom   17 type  2   force =     0.00000000    0.00000000    0.00000000
     atom   18 type  2   force =     0.00000000    0.00000000    0.00000000
     atom   19 type  1   force =    -0.00012774    0.00001724   -0.00000203
     atom   20 type  1   force =     0.00008438    0.00009120   -0.00000201
     atom   21 type  2   force =     0.00000000    0.00000000    0.00000000
     atom   22 type  2   force =     0.00000000    0.00000000    0.00000000
     atom   23 type  1   force =    -0.00013866    0.00006840   -0.00000189
     atom   24 type  1   force =     0.00007538    0.00006934   -0.00000185
     atom   25 type  1   force =     0.00008226    0.00066852   -0.00192313
     atom   26 type  1   force =    -0.00001867    0.00066258    0.00012389
     atom   27 type  1   force =    -0.00006050   -0.00079096   -0.00028941
     atom   28 type  1   force =     0.00009999   -0.00027372   -0.00069215
     atom   29 type  2   force =     0.00000000    0.00000000    0.00000000
     atom   30 type  2   force =     0.00000000    0.00000000    0.00000000
     atom   31 type  1   force =     0.00012904   -0.00028022   -0.00134204
     atom   32 type  1   force =    -0.00003164    0.00018696   -0.00055752
     atom   33 type  2   force =     0.00000000    0.00000000    0.00000000
     atom   34 type  2   force =     0.00000000    0.00000000    0.00000000
     atom   35 type  1   force =     0.00014902    0.00029885    0.00071525
     atom   36 type  1   force =     0.00000742   -0.00030407    0.00095980
     atom   37 type  1   force =    -0.00005730    0.01356486   -0.00403485
     atom   38 type  1   force =     0.00014497   -0.01325364    0.00263029
     atom   39 type  1   force =    -0.01115874    0.01307435    0.00409834
     atom   40 type  1   force =    -0.01315568   -0.00762655   -0.00251784
     atom   41 type  3   force =     0.00000000    0.00000000    0.00000000
     atom   42 type  3   force =     0.00000000    0.00000000    0.00000000
     atom   43 type  3   force =     0.00000000    0.00000000    0.00000000
     atom   44 type  3   force =     0.00000000    0.00000000    0.00000000
     atom   45 type  3   force =     0.00000000    0.00000000    0.00000000
     atom   46 type  3   force =     0.00000000    0.00000000    0.00000000
     atom   47 type  3   force =     0.00000000    0.00000000    0.00000000
     atom   48 type  3   force =     0.00000000    0.00000000    0.00000000
     atom   49 type  3   force =     0.00000000    0.00000000    0.00000000
     atom   50 type  3   force =     0.00000000    0.00000000    0.00000000
     The Hubbard contrib.    to forces
     atom    1 type  1   force =     0.00000000    0.00000000    0.00000000
     atom    2 type  1   force =     0.00000000    0.00000000    0.00000000
     atom    3 type  1   force =     0.00000000    0.00000000    0.00000000
     atom    4 type  1   force =     0.00000000    0.00000000    0.00000000
     atom    5 type  2   force =     0.00000000    0.00000000    0.00000000
     atom    6 type  2   force =     0.00000000    0.00000000    0.00000000
     atom    7 type  1   force =     0.00000000    0.00000000    0.00000000
     atom    8 type  1   force =     0.00000000    0.00000000    0.00000000
     atom    9 type  2   force =     0.00000000    0.00000000    0.00000000
     atom   10 type  2   force =     0.00000000    0.00000000    0.00000000
     atom   11 type  1   force =     0.00000000    0.00000000    0.00000000
     atom   12 type  1   force =     0.00000000    0.00000000    0.00000000
     atom   13 type  1   force =     0.00000000    0.00000000    0.00000000
     atom   14 type  1   force =     0.00000000    0.00000000    0.00000000
     atom   15 type  1   force =     0.00000000    0.00000000    0.00000000
     atom   16 type  1   force =     0.00000000    0.00000000    0.00000000
     atom   17 type  2   force =     0.00000000    0.00000000    0.00000000
     atom   18 type  2   force =     0.00000000    0.00000000    0.00000000
     atom   19 type  1   force =     0.00000000    0.00000000    0.00000000
     atom   20 type  1   force =     0.00000000    0.00000000    0.00000000
     atom   21 type  2   force =     0.00000000    0.00000000    0.00000000
     atom   22 type  2   force =     0.00000000    0.00000000    0.00000000
     atom   23 type  1   force =     0.00000000    0.00000000    0.00000000
     atom   24 type  1   force =     0.00000000    0.00000000    0.00000000
     atom   25 type  1   force =     0.00000000    0.00000000    0.00000000
     atom   26 type  1   force =     0.00000000    0.00000000    0.00000000
     atom   27 type  1   force =     0.00000000    0.00000000    0.00000000
     atom   28 type  1   force =     0.00000000    0.00000000    0.00000000
     atom   29 type  2   force =     0.00000000    0.00000000    0.00000000
     atom   30 type  2   force =     0.00000000    0.00000000    0.00000000
     atom   31 type  1   force =     0.00000000    0.00000000    0.00000000
     atom   32 type  1   force =     0.00000000    0.00000000    0.00000000
     atom   33 type  2   force =     0.00000000    0.00000000    0.00000000
     atom   34 type  2   force =     0.00000000    0.00000000    0.00000000
     atom   35 type  1   force =     0.00000000    0.00000000    0.00000000
     atom   36 type  1   force =     0.00000000    0.00000000    0.00000000
     atom   37 type  1   force =     0.00000000    0.00000000    0.00000000
     atom   38 type  1   force =     0.00000000    0.00000000    0.00000000
     atom   39 type  1   force =     0.00000000    0.00000000    0.00000000
     atom   40 type  1   force =     0.00000000    0.00000000    0.00000000
     atom   41 type  3   force =     0.00000000    0.00000000    0.00000000
     atom   42 type  3   force =     0.00000000    0.00000000    0.00000000
     atom   43 type  3   force =     0.00000000    0.00000000    0.00000000
     atom   44 type  3   force =     0.00000000    0.00000000    0.00000000
     atom   45 type  3   force =     0.00000000    0.00000000    0.00000000
     atom   46 type  3   force =     0.00000000    0.00000000    0.00000000
     atom   47 type  3   force =     0.00000000    0.00000000    0.00000000
     atom   48 type  3   force =     0.00000000    0.00000000    0.00000000
     atom   49 type  3   force =     0.00000000    0.00000000    0.00000000
     atom   50 type  3   force =     0.00000000    0.00000000    0.00000000
     The SCF correction term to forces
     atom    1 type  1   force =     0.00000031    0.00000127   -0.00000137
     atom    2 type  1   force =     0.00000033    0.00000081   -0.00000041
     atom    3 type  1   force =     0.00000027   -0.00000010   -0.00000089
     atom    4 type  1   force =    -0.00000022   -0.00000004   -0.00000083
     atom    5 type  2   force =     0.00000017    0.00000039    0.00000025
     atom    6 type  2   force =    -0.00000005    0.00000001    0.00000079
     atom    7 type  1   force =     0.00000018    0.00000021   -0.00000012
     atom    8 type  1   force =    -0.00000026    0.00000068    0.00000010
     atom    9 type  2   force =    -0.00000028   -0.00000041   -0.00000009
     atom   10 type  2   force =     0.00000033   -0.00000010   -0.00000137
     atom   11 type  1   force =     0.00000046   -0.00000049   -0.00000048
     atom   12 type  1   force =    -0.00000052   -0.00000072   -0.00000008
     atom   13 type  1   force =    -0.00000020    0.00000009    0.00000101
     atom   14 type  1   force =    -0.00000004   -0.00000001    0.00000095
     atom   15 type  1   force =    -0.00000003   -0.00000041    0.00000081
     atom   16 type  1   force =     0.00000010   -0.00000043    0.00000074
     atom   17 type  2   force =    -0.00000097    0.00000018    0.00000000
     atom   18 type  2   force =     0.00000081    0.00000021    0.00000000
     atom   19 type  1   force =     0.00000007   -0.00000006    0.00000000
     atom   20 type  1   force =    -0.00000003   -0.00000084    0.00000000
     atom   21 type  2   force =     0.00000040   -0.00000012    0.00000000
     atom   22 type  2   force =    -0.00000056   -0.00000002    0.00000000
     atom   23 type  1   force =    -0.00000002   -0.00000023    0.00000000
     atom   24 type  1   force =    -0.00000001    0.00000044    0.00000000
     atom   25 type  1   force =    -0.00000003   -0.00000041   -0.00000080
     atom   26 type  1   force =     0.00000010   -0.00000043   -0.00000074
     atom   27 type  1   force =    -0.00000020    0.00000009   -0.00000101
     atom   28 type  1   force =    -0.00000004   -0.00000001   -0.00000095
     atom   29 type  2   force =     0.00000017    0.00000039   -0.00000025
     atom   30 type  2   force =    -0.00000005    0.00000000   -0.00000078
     atom   31 type  1   force =     0.00000018    0.00000021    0.00000012
     atom   32 type  1   force =    -0.00000026    0.00000068   -0.00000009
     atom   33 type  2   force =    -0.00000028   -0.00000040    0.00000009
     atom   34 type  2   force =     0.00000033   -0.00000010    0.00000138
     atom   35 type  1   force =     0.00000046   -0.00000049    0.00000048
     atom   36 type  1   force =    -0.00000052   -0.00000071    0.00000008
     atom   37 type  1   force =     0.00000027   -0.00000010    0.00000089
     atom   38 type  1   force =    -0.00000022   -0.00000004    0.00000083
     atom   39 type  1   force =     0.00000031    0.00000127    0.00000137
     atom   40 type  1   force =     0.00000033    0.00000081    0.00000041
     atom   41 type  3   force =     0.00000005    0.00000010   -0.00000013
     atom   42 type  3   force =     0.00000005    0.00000010    0.00000013
     atom   43 type  3   force =    -0.00000005    0.00000004   -0.00000002
     atom   44 type  3   force =    -0.00000005    0.00000004    0.00000002
     atom   45 type  3   force =     0.00000000    0.00000003   -0.00000016
     atom   46 type  3   force =     0.00000000    0.00000003    0.00000016
     atom   47 type  3   force =    -0.00000001    0.00000009   -0.00000013
     atom   48 type  3   force =    -0.00000001    0.00000009    0.00000013
     atom   49 type  3   force =     0.00000004   -0.00000006   -0.00000014
     atom   50 type  3   force =     0.00000004   -0.00000006    0.00000014

     Total force =     0.000459     Total SCF correction =     0.000006
     Energy error            =      3.7E-07 Ry
     Gradient error          =      9.8E-05 Ry/Bohr

     bfgs converged in  42 scf cycles and  41 bfgs steps
     (criteria: energy <  1.0E-04 Ry, force <  1.0E-04 Ry/Bohr)

     End of BFGS Geometry Optimization

     Final energy             =   -3440.3893392466 Ry

     File /storage/home/mgm6007/ixd4/Maria/Strain0_Files/RuO2-110-0-01234/RuO2-110-0-01234.bfgs deleted, as requested
Begin final coordinates

ATOMIC_POSITIONS (crystal)
O             0.0382201383        0.4344151475        0.2614787579
O             0.4592885607        0.4311015968        0.2654033935
O            -0.0012565928        0.0120390665        0.2967493130
O             0.4964686922        0.0097268087        0.2990684653
Ru            0.2490635552       -0.0077870335        0.3585704329
Ru            0.7468599621       -0.0085630266        0.3576394756
O             0.2481316960        0.3003273194        0.3621272076
O             0.7487672626        0.3028460819        0.3581912776
Ru            0.0004620046        0.4909795226        0.3594000559
Ru            0.4962807868        0.4911967240        0.3565899756
O             0.2472067986        0.6843308330        0.3533368612
O             0.7495402988        0.6813745272        0.3502924962
O            -0.0032934470       -0.0107864967        0.4112773134
O             0.4990766572       -0.0084976738        0.4111571732
O            -0.0025733060        0.5084679748        0.4457586055
O             0.5002807723        0.5087628003        0.4440526178
Ru           -0.0019065039        0.0054640107        0.5000010000
Ru            0.4983741061        0.0054406617        0.5000010000
O             0.2481503263        0.1959911491        0.5000010000
O             0.7480182024        0.1963291449        0.5000010000
Ru            0.2511800700        0.5067192610        0.5000010000
Ru            0.7463869435        0.5073042318        0.5000010000
O             0.2486655566        0.8164324901        0.5000010000
O             0.7479411370        0.8166672311        0.5000010000
O            -0.0025733060        0.5084679748        0.5542423945
O             0.5002807723        0.5087628003        0.5559483822
O            -0.0032934470       -0.0107864967        0.5887236866
O             0.4990766572       -0.0084976738        0.5888438268
Ru            0.2490635552       -0.0077870335        0.6414305671
Ru            0.7468599621       -0.0085630266        0.6423615244
O             0.2481316960        0.3003273194        0.6378737924
O             0.7487672626        0.3028460819        0.6418097224
Ru            0.0004620046        0.4909795226        0.6406009441
Ru            0.4962807868        0.4911967240        0.6434110244
O             0.2472067986        0.6843308330        0.6466641388
O             0.7495402988        0.6813745272        0.6497085038
O            -0.0012565928        0.0120390665        0.7032526870
O             0.4964686922        0.0097268087        0.7009335347
O             0.0382201383        0.4344151475        0.7385222421
O             0.4592885607        0.4311015968        0.7345976065
H             0.1951651951        0.4453852259        0.2562303871
H             0.1951651951        0.4453852259        0.7437696129
H             0.5693447307        0.4942513926        0.2408487395
H             0.5693447307        0.4942513926        0.7591512605
H             0.0121953182        0.2762657628        0.2623421334
H             0.0121953182        0.2762657628        0.7376578666
H             0.4931937560        0.1542141245        0.2789436724
H             0.4931937560        0.1542141245        0.7210563276
H            -0.0005577585        0.8989922316        0.2662432446
H            -0.0005577585        0.8989922316        0.7337567554
End final coordinates

     Writing all to output data dir /storage/home/mgm6007/ixd4/Maria/Strain0_Files/RuO2-110-0-01234/RuO2-110-0-01234.save/

     General routines

     Parallel routines

     Environ routines

   This run was terminated on:  15:52:18  23Jul2023

   JOB DONE.