     Program PWSCF v.7.2 starts on 26Jul2023 at 11:20:48
        Git branch: heads/qe-7.2
        Last git commit: b4c5e8deeb7d1863e7553a87b45f8d22c21926a5
        Last git commit date: Mon Mar 27 16:12:09 2023 +0000
        Last git commit subject: Merge branch 'merge_fix_hubbard' into 'develop'

     Reading input from RuO2-110-0-0123.in

     Current dimensions of program PWSCF are:
     Max number of different atomic species (ntypx) = 10
     Max number of k-points (npk) =  40000
     Max angular momentum in pseudopotentials (lmaxx) =  4

     Reading input from environ.in:
     * Environ restarting
     * setting up water environment
     * using electronic solvent mode
     * setting boundary derivatives method to SCCS default

     file O.pbe-n-kjpaw_psl.0.1.UPF: wavefunction(s)  2P renormalized
     Message from routine setup:
     using ibrav=0 with symmetry is DISCOURAGED, use correct ibrav instead

     R & G space division:  proc/nbgrp/npool/nimage =      20
     Subspace diagonalization in iterative solution of the eigenvalue problem:
     one sub-group per band group will be used

     Using Slab Decomposition

     bravais-lattice index     =            0
     lattice parameter (alat)  =      12.3824  a.u.
     unit-cell volume          =    5825.9133 (a.u.)^3
     number of atoms/cell      =           48
     number of atomic types    =            3
     number of electrons       =       368.00
     number of Kohn-Sham states=          221
     kinetic-energy cutoff     =      50.0000  Ry
     charge density cutoff     =     500.0000  Ry
     scf convergence threshold =      1.0E-09
     mixing beta               =       0.7000
     number of iterations used =            8  local-TF  mixing
     energy convergence thresh.=      1.0E-04
     force convergence thresh. =      1.0E-04
     Exchange-correlation= PBE
                           (   1   4   3   4   0   0   0)
     nstep                     =          200

                                  Environ Setup Summary

          O. Andreussi, I. Dabo and N. Marzari, J. Chem. Phys. 136, 064102 (2012)

     in publications or presentations arising from this work.

     Parameters

     compensation onset threshold      =               0.1000E+00
     static permittivity               =                    78.30
     surface tension in input (dyn/cm) =                    47.90
     surface tension in internal units =               0.6153E-04
     external pressure in input (GPa)  =                    -0.36
     external pressure in inter. units =              -0.2447E-04

     Solvent Boundary

     solvent mode                      =               electronic
     derivatives method                =                    chain
     numerical core for derivatives    =                      fft
     switching function adopted        =                     SCCS
     density limit for vacuum region   =               0.5000E-02
     density limit for bulk solvent    =               0.1000E-03

     Electrostatic Setup

     electrostatic problem to solve    =              generalized
     numerical solver adopted          =                       cg
     type of auxiliary density adopted =                     none
     numerical core for poisson        =                      fft
     type of pbc corrections           =                parabolic
     numerical core for corrections    =                      1da

     celldm(1)=  12.382447  celldm(2)=   0.000000  celldm(3)=   0.000000
     celldm(4)=   0.000000  celldm(5)=   0.000000  celldm(6)=   0.000000

     crystal axes: (cart. coord. in units of alat)
               a(1) = (   1.000000   0.000000   0.000000 )
               a(2) = (   0.000000   0.908473   0.000000 )
               a(3) = (   0.000000   0.000000   3.377790 )

     reciprocal axes: (cart. coord. in units 2 pi/alat)
               b(1) = (  1.000000  0.000000  0.000000 )
               b(2) = (  0.000000  1.100748  0.000000 )
               b(3) = (  0.000000  0.000000  0.296052 )

     PseudoPot. # 1 for O  read from file:
     /gpfs/group/ixd4/default/Simon/pseudopotentials/materialscloud/SSSP_1.3.0_PBE_efficiency/O.pbe-n-kjpaw_psl.0.1.UPF
     MD5 check sum: 0234752ac141de4415c5fc33072bef88
     Pseudo is Projector augmented-wave + core cor, Zval =  6.0
     Generated using "atomic" code by A. Dal Corso  v.5.0.99 svn rev. 10869
     Shape of augmentation charge: BESSEL
     Using radial grid of 1095 points,  4 beta functions with:
                l(1) =   0
                l(2) =   0
                l(3) =   1
                l(4) =   1
     Q(r) pseudized with 0 coefficients

     PseudoPot. # 2 for Ru read from file:
     /gpfs/group/ixd4/default/Simon/pseudopotentials/materialscloud/SSSP_1.3.0_PBE_efficiency/Ru_ONCV_PBE-1.0.oncvpsp.upf
     MD5 check sum: be037bb81c227cfb9b1461a9f099f4bd
     Pseudo is Norm-conserving, Zval = 16.0
     Generated using ONCVPSP code by D. R. Hamann
     Using radial grid of 1458 points,  6 beta functions with:
                l(1) =   0
                l(2) =   0
                l(3) =   1
                l(4) =   1
                l(5) =   2
                l(6) =   2

     PseudoPot. # 3 for H  read from file:
     /gpfs/group/ixd4/default/Simon/pseudopotentials/materialscloud/SSSP_1.3.0_PBE_efficiency/H.pbe-rrkjus_psl.1.0.0.UPF
     MD5 check sum: f52b6d4d1c606e5624b1dc7b2218f220
     Pseudo is Ultrasoft, Zval =  1.0
     Generated using "atomic" code by A. Dal Corso  v.5.1
     Using radial grid of  929 points,  2 beta functions with:
                l(1) =   0
                l(2) =   0
     Q(r) pseudized with 0 coefficients

     atomic species   valence    mass     pseudopotential
        O              6.00    15.99940     O ( 1.00)
        Ru            16.00   101.07000     Ru( 1.00)
        H              1.00     1.00794     H ( 1.00)

      2 Sym. Ops. (no inversion) found

   Cartesian axes

     site n.     atom                  positions (alat units)
         1           O   tau(   1) = (   0.0019623   0.4365300   0.9047057  )
         2           O   tau(   2) = (   0.4875057   0.4186297   0.9122539  )
         3           O   tau(   3) = (  -0.0024060   0.0090213   1.0172771  )
         4           O   tau(   4) = (   0.4986248   0.0174278   1.0137281  )
         5           Ru  tau(   5) = (   0.2484595   0.0025699   1.2104087  )
         6           Ru  tau(   6) = (   0.7480150   0.0024970   1.2108511  )
         7           O   tau(   7) = (   0.2477783   0.2763776   1.2126886  )
         8           O   tau(   8) = (   0.7499621   0.2798583   1.2109557  )
         9           Ru  tau(   9) = (   0.0003048   0.4552734   1.1997340  )
        10           Ru  tau(  10) = (   0.4960769   0.4554024   1.2102937  )
        11           O   tau(  11) = (   0.2508506   0.6352010   1.1986191  )
        12           O   tau(  12) = (   0.7453879   0.6315421   1.1958410  )
        13           O   tau(  13) = (  -0.0013353  -0.0029581   1.3902096  )
        14           O   tau(  14) = (   0.4980900  -0.0010589   1.3891737  )
        15           O   tau(  15) = (  -0.0004275   0.4592016   1.4921080  )
        16           O   tau(  16) = (   0.5005818   0.4570164   1.5062262  )
        17           Ru  tau(  17) = (   0.0018515   0.0010157   1.6888985  )
        18           Ru  tau(  18) = (   0.4969439   0.0010775   1.6888985  )
        19           O   tau(  19) = (   0.2473667   0.1798602   1.6888985  )
        20           O   tau(  20) = (   0.7505232   0.1751089   1.6888985  )
        21           Ru  tau(  21) = (   0.2443070   0.4555501   1.6888985  )
        22           Ru  tau(  22) = (   0.7550701   0.4557362   1.6888985  )
        23           O   tau(  23) = (   0.2485101   0.7313144   1.6888985  )
        24           O   tau(  24) = (   0.7497567   0.7365562   1.6888985  )
        25           O   tau(  25) = (  -0.0004275   0.4592016   1.8856857  )
        26           O   tau(  26) = (   0.5005818   0.4570164   1.8715675  )
        27           O   tau(  27) = (  -0.0013353  -0.0029581   1.9875841  )
        28           O   tau(  28) = (   0.4980900  -0.0010589   1.9886200  )
        29           Ru  tau(  29) = (   0.2484595   0.0025699   2.1673850  )
        30           Ru  tau(  30) = (   0.7480150   0.0024970   2.1669426  )
        31           O   tau(  31) = (   0.2477783   0.2763776   2.1651051  )
        32           O   tau(  32) = (   0.7499621   0.2798583   2.1668380  )
        33           Ru  tau(  33) = (   0.0003048   0.4552734   2.1780597  )
        34           Ru  tau(  34) = (   0.4960769   0.4554024   2.1675000  )
        35           O   tau(  35) = (   0.2508506   0.6352010   2.1791746  )
        36           O   tau(  36) = (   0.7453879   0.6315421   2.1819527  )
        37           O   tau(  37) = (  -0.0024060   0.0090213   2.3605200  )
        38           O   tau(  38) = (   0.4986248   0.0174278   2.3640689  )
        39           O   tau(  39) = (   0.0019623   0.4365300   2.4730880  )
        40           O   tau(  40) = (   0.4875057   0.4186297   2.4655398  )
        41           H   tau(  41) = (   0.1476437   0.4396738   0.8555851  )
        42           H   tau(  42) = (   0.1476437   0.4396738   2.5222052  )
        43           H   tau(  43) = (   0.6263337   0.4402517   0.8530136  )
        44           H   tau(  44) = (   0.6263337   0.4402517   2.5247767  )
        45           H   tau(  45) = (  -0.0038173   0.1053395   0.9117550  )
        46           H   tau(  46) = (  -0.0038173   0.1053395   2.4660353  )
        47           H   tau(  47) = (   0.4985143   0.1351653   0.9367025  )
        48           H   tau(  48) = (   0.4985143   0.1351653   2.4410878  )

     number of k points=     2  Marzari-Vanderbilt smearing, width (Ry)=  0.0300
                       cart. coord. in units 2pi/alat
        k(    1) = (   0.2500000   0.2751871   0.0000000), wk =   1.0000000
        k(    2) = (  -0.2500000   0.2751871   0.0000000), wk =   1.0000000

     Check: negative core charge=   -0.000001

     Initial potential from superposition of free atoms

     starting charge     367.9933, renormalised to     368.0000

     add environment contribution to local potential
     Polarization accuracy = 2.2E-12, # of iterations =  24

     negative rho (up, down):  2.840E-05 0.000E+00
     Starting wfcs are  240 randomized atomic wfcs
     Checking if some PAW data can be deallocated...

     Self-consistent Calculation

     iteration #  1     ecut=    50.00 Ry     beta= 0.70
     Davidson diagonalization with overlap
     ethr =  1.00E-02,  avg # of iterations =  3.0

     negative rho (up, down):  1.728E-08 0.000E+00

     total energy              =   -3435.43926037 Ry
     estimated scf accuracy    <       8.90980175 Ry
     electrostatic embedding   =      -0.00181611 Ry
     cavitation energy         =       0.01931625 Ry
     PV energy                 =      -0.08529402 Ry
     correction to one-el term =     223.63361649 Ry

[...]

     the potential shift due to the Gaussian-smeared nuclei is    -1.3500 ev

     End of self-consistent calculation

[...]
     atom   28 type  1   force =     0.02216745    0.60658313  -38.58497735
     atom   29 type  2   force =     0.24814871    2.21820283 -170.78731228
     atom   30 type  2   force =     0.24280272    2.20860518 -170.85697563
     atom   31 type  1   force =    -0.02410739    0.28998985  -60.91782009
     atom   32 type  1   force =    -0.03048530    0.27933504  -61.04593683
     atom   33 type  2   force =    -0.02147804   -3.04832565 -171.44504906
     atom   34 type  2   force =    -0.18707305   -3.04927613 -171.44181440
     atom   35 type  1   force =    -0.02899756   -0.92819199  -68.73553806
     atom   36 type  1   force =    -0.02637098   -0.91135103  -68.86732076
     atom   37 type  1   force =    -0.03467196    2.46586818  -92.41206887
     atom   38 type  1   force =    -0.06611472    2.46427083  -92.41190081
     atom   39 type  1   force =     1.11638244   -0.36690383  -95.35799109
     atom   40 type  1   force =     1.05026931   -0.35720937  -95.32769321
     atom   41 type  3   force =    -2.72184271   -0.72233860   16.49465177
     atom   42 type  3   force =    -2.72184271   -0.72233860  -16.49465177
     atom   43 type  3   force =    -2.72144215   -0.75569694   16.51468733
     atom   44 type  3   force =    -2.72144215   -0.75569694  -16.51468733
     atom   45 type  3   force =     0.03827771   -1.45007339   16.91762776
     atom   46 type  3   force =     0.03827771   -1.45007339  -16.91762776
     atom   47 type  3   force =     0.02936774   -1.45000403   16.91810708
     atom   48 type  3   force =     0.02936774   -1.45000403  -16.91810708
     The core correction contribution to forces
     atom    1 type  1   force =    -0.01710460   -0.00275073   -0.00303516
     atom    2 type  1   force =    -0.01707826   -0.00292926   -0.00277498
     atom    3 type  1   force =    -0.00000702   -0.01294116   -0.00189140
     atom    4 type  1   force =     0.00000828   -0.01293359   -0.00188478
     atom    5 type  2   force =     0.00000000    0.00000000    0.00000000
     atom    6 type  2   force =     0.00000000    0.00000000    0.00000000
     atom    7 type  1   force =     0.00037482    0.00067436    0.00109695
     atom    8 type  1   force =     0.00037505    0.00068588    0.00106403
     atom    9 type  2   force =     0.00000000    0.00000000    0.00000000
     atom   10 type  2   force =     0.00000000    0.00000000    0.00000000
     atom   11 type  1   force =     0.00030718   -0.00042163   -0.00156003
     atom   12 type  1   force =     0.00030422   -0.00043615   -0.00158971
     atom   13 type  1   force =    -0.00007624   -0.00051233   -0.00032530
     atom   14 type  1   force =    -0.00007512   -0.00050514   -0.00032295
     atom   15 type  1   force =     0.00034304    0.00059566   -0.00008255
     atom   16 type  1   force =     0.00033415    0.00058112   -0.00008075
     atom   17 type  2   force =     0.00000000    0.00000000    0.00000000
     atom   18 type  2   force =     0.00000000    0.00000000    0.00000000
     atom   19 type  1   force =    -0.00043576   -0.00053567   -0.00000207
     atom   20 type  1   force =    -0.00043496   -0.00053274   -0.00000207
     atom   21 type  2   force =     0.00000000    0.00000000    0.00000000
     atom   22 type  2   force =     0.00000000    0.00000000    0.00000000
     atom   23 type  1   force =    -0.00045809    0.00050364   -0.00000195
     atom   24 type  1   force =    -0.00045424    0.00049845   -0.00000195
     atom   25 type  1   force =     0.00034299    0.00059588    0.00008030
     atom   26 type  1   force =     0.00033410    0.00058132    0.00007850
     atom   27 type  1   force =    -0.00007624   -0.00051246    0.00032302
     atom   28 type  1   force =    -0.00007512   -0.00050527    0.00032067
     atom   29 type  2   force =     0.00000000    0.00000000    0.00000000
     atom   30 type  2   force =     0.00000000    0.00000000    0.00000000
     atom   31 type  1   force =     0.00037482    0.00067449   -0.00109889
     atom   32 type  1   force =     0.00037505    0.00068601   -0.00106598
     atom   33 type  2   force =     0.00000000    0.00000000    0.00000000
     atom   34 type  2   force =     0.00000000    0.00000000    0.00000000
     atom   35 type  1   force =     0.00030721   -0.00042172    0.00155792
     atom   36 type  1   force =     0.00030425   -0.00043625    0.00158760
     atom   37 type  1   force =    -0.00000699   -0.01294300    0.00188763
     atom   38 type  1   force =     0.00000831   -0.01293543    0.00188100
     atom   39 type  1   force =    -0.01710537   -0.00275076    0.00303267
     atom   40 type  1   force =    -0.01707902   -0.00292931    0.00277247
     atom   41 type  3   force =     0.00000000    0.00000000    0.00000000
     atom   42 type  3   force =     0.00000000    0.00000000    0.00000000
     atom   43 type  3   force =     0.00000000    0.00000000    0.00000000
     atom   44 type  3   force =     0.00000000    0.00000000    0.00000000
     atom   45 type  3   force =     0.00000000    0.00000000    0.00000000
     atom   46 type  3   force =     0.00000000    0.00000000    0.00000000
     atom   47 type  3   force =     0.00000000    0.00000000    0.00000000
     atom   48 type  3   force =     0.00000000    0.00000000    0.00000000
     The Hubbard contrib.    to forces
     atom    1 type  1   force =     0.00000000    0.00000000    0.00000000
     atom    2 type  1   force =     0.00000000    0.00000000    0.00000000
     atom    3 type  1   force =     0.00000000    0.00000000    0.00000000
     atom    4 type  1   force =     0.00000000    0.00000000    0.00000000
     atom    5 type  2   force =     0.00000000    0.00000000    0.00000000
     atom    6 type  2   force =     0.00000000    0.00000000    0.00000000
     atom    7 type  1   force =     0.00000000    0.00000000    0.00000000
     atom    8 type  1   force =     0.00000000    0.00000000    0.00000000
     atom    9 type  2   force =     0.00000000    0.00000000    0.00000000
     atom   10 type  2   force =     0.00000000    0.00000000    0.00000000
     atom   11 type  1   force =     0.00000000    0.00000000    0.00000000
     atom   12 type  1   force =     0.00000000    0.00000000    0.00000000
     atom   13 type  1   force =     0.00000000    0.00000000    0.00000000
     atom   14 type  1   force =     0.00000000    0.00000000    0.00000000
     atom   15 type  1   force =     0.00000000    0.00000000    0.00000000
     atom   16 type  1   force =     0.00000000    0.00000000    0.00000000
     atom   17 type  2   force =     0.00000000    0.00000000    0.00000000
     atom   18 type  2   force =     0.00000000    0.00000000    0.00000000
     atom   19 type  1   force =     0.00000000    0.00000000    0.00000000
     atom   20 type  1   force =     0.00000000    0.00000000    0.00000000
     atom   21 type  2   force =     0.00000000    0.00000000    0.00000000
     atom   22 type  2   force =     0.00000000    0.00000000    0.00000000
     atom   23 type  1   force =     0.00000000    0.00000000    0.00000000
     atom   24 type  1   force =     0.00000000    0.00000000    0.00000000
     atom   25 type  1   force =     0.00000000    0.00000000    0.00000000
     atom   26 type  1   force =     0.00000000    0.00000000    0.00000000
     atom   27 type  1   force =     0.00000000    0.00000000    0.00000000
     atom   28 type  1   force =     0.00000000    0.00000000    0.00000000
     atom   29 type  2   force =     0.00000000    0.00000000    0.00000000
     atom   30 type  2   force =     0.00000000    0.00000000    0.00000000
     atom   31 type  1   force =     0.00000000    0.00000000    0.00000000
     atom   32 type  1   force =     0.00000000    0.00000000    0.00000000
     atom   33 type  2   force =     0.00000000    0.00000000    0.00000000
     atom   34 type  2   force =     0.00000000    0.00000000    0.00000000
     atom   35 type  1   force =     0.00000000    0.00000000    0.00000000
     atom   36 type  1   force =     0.00000000    0.00000000    0.00000000
     atom   37 type  1   force =     0.00000000    0.00000000    0.00000000
     atom   38 type  1   force =     0.00000000    0.00000000    0.00000000
     atom   39 type  1   force =     0.00000000    0.00000000    0.00000000
     atom   40 type  1   force =     0.00000000    0.00000000    0.00000000
     atom   41 type  3   force =     0.00000000    0.00000000    0.00000000
     atom   42 type  3   force =     0.00000000    0.00000000    0.00000000
     atom   43 type  3   force =     0.00000000    0.00000000    0.00000000
     atom   44 type  3   force =     0.00000000    0.00000000    0.00000000
     atom   45 type  3   force =     0.00000000    0.00000000    0.00000000
     atom   46 type  3   force =     0.00000000    0.00000000    0.00000000
     atom   47 type  3   force =     0.00000000    0.00000000    0.00000000
     atom   48 type  3   force =     0.00000000    0.00000000    0.00000000
     The SCF correction term to forces
     atom    1 type  1   force =    -0.00000126    0.00000042    0.00000150
     atom    2 type  1   force =     0.00000143   -0.00000041    0.00000167
     atom    3 type  1   force =    -0.00000133    0.00000006    0.00000180
     atom    4 type  1   force =     0.00000125    0.00000038    0.00000069
     atom    5 type  2   force =     0.00000046   -0.00000044    0.00000484
     atom    6 type  2   force =    -0.00000043    0.00000047    0.00000298
     atom    7 type  1   force =    -0.00000033    0.00000085    0.00000233
     atom    8 type  1   force =     0.00000014    0.00000029    0.00000058
     atom    9 type  2   force =    -0.00000183    0.00000006    0.00000410
     atom   10 type  2   force =     0.00000211   -0.00000029    0.00000312
     atom   11 type  1   force =    -0.00000035   -0.00000062    0.00000163
     atom   12 type  1   force =     0.00000019   -0.00000050    0.00000106
     atom   13 type  1   force =    -0.00000067   -0.00000027    0.00000155
     atom   14 type  1   force =     0.00000059    0.00000029    0.00000163
     atom   15 type  1   force =    -0.00000008   -0.00000016    0.00000062
     atom   16 type  1   force =     0.00000001   -0.00000043    0.00000096
     atom   17 type  2   force =    -0.00000048    0.00000006   -0.00000000
     atom   18 type  2   force =     0.00000024    0.00000046   -0.00000000
     atom   19 type  1   force =     0.00000019    0.00000003   -0.00000000
     atom   20 type  1   force =    -0.00000009   -0.00000021   -0.00000000
     atom   21 type  2   force =    -0.00000087   -0.00000027   -0.00000000
     atom   22 type  2   force =     0.00000092   -0.00000026   -0.00000000
     atom   23 type  1   force =     0.00000001   -0.00000014   -0.00000000
     atom   24 type  1   force =     0.00000008    0.00000018   -0.00000000
     atom   25 type  1   force =    -0.00000008   -0.00000016   -0.00000062
     atom   26 type  1   force =     0.00000001   -0.00000043   -0.00000096
     atom   27 type  1   force =    -0.00000067   -0.00000027   -0.00000155
     atom   28 type  1   force =     0.00000059    0.00000029   -0.00000163
     atom   29 type  2   force =     0.00000046   -0.00000044   -0.00000485
     atom   30 type  2   force =    -0.00000043    0.00000047   -0.00000299
     atom   31 type  1   force =    -0.00000033    0.00000085   -0.00000234
     atom   32 type  1   force =     0.00000015    0.00000029   -0.00000058
     atom   33 type  2   force =    -0.00000183    0.00000006   -0.00000411
     atom   34 type  2   force =     0.00000211   -0.00000029   -0.00000313
     atom   35 type  1   force =    -0.00000036   -0.00000062   -0.00000164
     atom   36 type  1   force =     0.00000019   -0.00000050   -0.00000106
     atom   37 type  1   force =    -0.00000133    0.00000006   -0.00000180
     atom   38 type  1   force =     0.00000125    0.00000038   -0.00000069
     atom   39 type  1   force =    -0.00000126    0.00000042   -0.00000150
     atom   40 type  1   force =     0.00000143   -0.00000041   -0.00000167
     atom   41 type  3   force =    -0.00000007    0.00000005    0.00000017
     atom   42 type  3   force =    -0.00000007    0.00000005   -0.00000017
     atom   43 type  3   force =     0.00000008   -0.00000005    0.00000027
     atom   44 type  3   force =     0.00000008   -0.00000005   -0.00000027
     atom   45 type  3   force =    -0.00000019    0.00000010    0.00000021
     atom   46 type  3   force =    -0.00000019    0.00000010   -0.00000021
     atom   47 type  3   force =     0.00000019    0.00000001    0.00000018
     atom   48 type  3   force =     0.00000019    0.00000001   -0.00000018

     Total force =     0.000533     Total SCF correction =     0.000014
     Energy error            =      5.1E-07 Ry
     Gradient error          =      1.0E-04 Ry/Bohr

     bfgs converged in  58 scf cycles and  57 bfgs steps
     (criteria: energy <  1.0E-04 Ry, force <  1.0E-04 Ry/Bohr)

     End of BFGS Geometry Optimization

     Final energy             =   -3437.7089986192 Ry

     File /storage/home/mgm6007/ixd4/Maria/StrainJin_Files/RuO2-110-0-0123/RuO2-110-0-0123.bfgs deleted, as requested
Begin final coordinates

ATOMIC_POSITIONS (crystal)
O            -0.0033338177        0.4419980276        0.2680271355
O             0.4944665485        0.4421417864        0.2680009559
O            -0.0040352230        0.0130724262        0.3018914809
O             0.4957957833        0.0131674311        0.3018909491
Ru            0.2459690709        0.0011016651        0.3586484767
Ru            0.7459571710        0.0010393666        0.3586037128
O             0.2524028426        0.3148874595        0.3613341504
O             0.7523743990        0.3148959212        0.3611801375
Ru            0.0017967179        0.5011521298        0.3565277626
Ru            0.5017251152        0.5011241295        0.3565390918
O             0.2527442354        0.6881111854        0.3515146556
O             0.7527348104        0.6880244231        0.3513359034
O            -0.0034330666       -0.0030523062        0.4111462413
O             0.4967227544       -0.0029739960        0.4111502951
O             0.0050005541        0.5118030320        0.4451442847
O             0.5051300208        0.5117471811        0.4451543413
Ru           -0.0031284407        0.0070552592        0.5000010000
Ru            0.4969035732        0.0071180299        0.5000010000
O             0.2455119633        0.1941679444        0.5000010000
O             0.7456262787        0.1941489449        0.5000010000
Ru            0.2561126996        0.5081534913        0.5000010000
Ru            0.7560806541        0.5081427791        0.5000010000
O             0.2460894312        0.8220406836        0.5000010000
O             0.7460245806        0.8220259542        0.5000010000
O             0.0050005541        0.5118030320        0.5548567153
O             0.5051300208        0.5117471811        0.5548466587
O            -0.0034330666       -0.0030523062        0.5888547587
O             0.4967227544       -0.0029739960        0.5888507049
Ru            0.2459690709        0.0011016651        0.6413525233
Ru            0.7459571710        0.0010393666        0.6413972872
O             0.2524028426        0.3148874595        0.6386668496
O             0.7523743990        0.3148959212        0.6388208625
Ru            0.0017967179        0.5011521298        0.6434732374
Ru            0.5017251152        0.5011241295        0.6434619082
O             0.2527442354        0.6881111854        0.6484863444
O             0.7527348104        0.6880244231        0.6486650966
O            -0.0040352230        0.0130724262        0.6981105191
O             0.4957957833        0.0131674311        0.6981110509
O            -0.0033338177        0.4419980276        0.7319738645
O             0.4944665485        0.4421417864        0.7320000441
H             0.1313123411        0.4706182971        0.2504371363
H             0.1313123411        0.4706182971        0.7495628637
H             0.6278854314        0.4723926440        0.2498497850
H             0.6278854314        0.4723926440        0.7501502150
H            -0.0050716649        0.1578469736        0.2781755268
H            -0.0050716649        0.1578469736        0.7218244732
H             0.4945156060        0.1579086795        0.2781632833
H             0.4945156060        0.1579086795        0.7218367167
End final coordinates

     Writing all to output data dir /storage/home/mgm6007/ixd4/Maria/StrainJin_Files/RuO2-110-0-0123/RuO2-110-0-0123.save/

     General routines

     Parallel routines

     Environ routines

   This run was terminated on:   6:39:13  28Jul2023

   JOB DONE.