     Program PWSCF v.7.2 starts on 23Jul2023 at 14:19:12
        Git branch: heads/qe-7.2
        Last git commit: b4c5e8deeb7d1863e7553a87b45f8d22c21926a5
        Last git commit date: Mon Mar 27 16:12:09 2023 +0000
        Last git commit subject: Merge branch 'merge_fix_hubbard' into 'develop'

     Reading input from RuO2-110-0-024.in

     Current dimensions of program PWSCF are:
     Max number of different atomic species (ntypx) = 10
     Max number of k-points (npk) =  40000
     Max angular momentum in pseudopotentials (lmaxx) =  4

     Reading input from environ.in:
     * Environ restarting
     * setting up water environment
     * using electronic solvent mode
     * setting boundary derivatives method to SCCS default

     File /storage/home/mgm6007/ixd4/Maria/Strain2_Files/RuO2-110-0-024/RuO2-110-0-024.update deleted, as requested

     File /storage/home/mgm6007/ixd4/Maria/Strain2_Files/RuO2-110-0-024/RuO2-110-0-024.bfgs deleted, as requested
     file O.pbe-n-kjpaw_psl.0.1.UPF: wavefunction(s)  2P renormalized
     Message from routine setup:
     using ibrav=0 with symmetry is DISCOURAGED, use correct ibrav instead

     R & G space division:  proc/nbgrp/npool/nimage =      20
     Subspace diagonalization in iterative solution of the eigenvalue problem:
     one sub-group per band group will be used

     Using Slab Decomposition

     bravais-lattice index     =            0
     lattice parameter (alat)  =      12.2467  a.u.
     unit-cell volume          =    5883.2137 (a.u.)^3
     number of atoms/cell      =           46
     number of atomic types    =            3
     number of electrons       =       366.00
     number of Kohn-Sham states=          220
     kinetic-energy cutoff     =      50.0000  Ry
     charge density cutoff     =     500.0000  Ry
     scf convergence threshold =      1.0E-09
     mixing beta               =       0.7000
     number of iterations used =            8  local-TF  mixing
     energy convergence thresh.=      1.0E-04
     force convergence thresh. =      1.0E-04
     Exchange-correlation= PBE
                           (   1   4   3   4   0   0   0)
     nstep                     =          200

                                  Environ Setup Summary

          O. Andreussi, I. Dabo and N. Marzari, J. Chem. Phys. 136, 064102 (2012)

     in publications or presentations arising from this work.

     Parameters

     compensation onset threshold      =               0.1000E+00
     static permittivity               =                    78.30
     surface tension in input (dyn/cm) =                    47.90
     surface tension in internal units =               0.6153E-04
     external pressure in input (GPa)  =                    -0.36
     external pressure in inter. units =              -0.2447E-04

     Solvent Boundary

     solvent mode                      =               electronic
     derivatives method                =                    chain
     numerical core for derivatives    =                      fft
     switching function adopted        =                     SCCS
     density limit for vacuum region   =               0.5000E-02
     density limit for bulk solvent    =               0.1000E-03

     Electrostatic Setup

     electrostatic problem to solve    =              generalized
     numerical solver adopted          =                       cg
     type of auxiliary density adopted =                     none
     numerical core for poisson        =                      fft
     type of pbc corrections           =                parabolic
     numerical core for corrections    =                      1da

     celldm(1)=  12.246684  celldm(2)=   0.000000  celldm(3)=   0.000000
     celldm(4)=   0.000000  celldm(5)=   0.000000  celldm(6)=   0.000000

     crystal axes: (cart. coord. in units of alat)
               a(1) = (   1.000000   0.000000   0.000000 )
               a(2) = (   0.000000   0.937861   0.000000 )
               a(3) = (   0.000000   0.000000   3.415235 )

     reciprocal axes: (cart. coord. in units 2 pi/alat)
               b(1) = (  1.000000  0.000000  0.000000 )
               b(2) = (  0.000000  1.066256  0.000000 )
               b(3) = (  0.000000  0.000000  0.292806 )

     PseudoPot. # 1 for O  read from file:
     /gpfs/group/ixd4/default/Simon/pseudopotentials/materialscloud/SSSP_1.3.0_PBE_efficiency/O.pbe-n-kjpaw_psl.0.1.UPF
     MD5 check sum: 0234752ac141de4415c5fc33072bef88
     Pseudo is Projector augmented-wave + core cor, Zval =  6.0
     Generated using "atomic" code by A. Dal Corso  v.5.0.99 svn rev. 10869
     Shape of augmentation charge: BESSEL
     Using radial grid of 1095 points,  4 beta functions with:
                l(1) =   0
                l(2) =   0
                l(3) =   1
                l(4) =   1
     Q(r) pseudized with 0 coefficients

     PseudoPot. # 2 for Ru read from file:
     /gpfs/group/ixd4/default/Simon/pseudopotentials/materialscloud/SSSP_1.3.0_PBE_efficiency/Ru_ONCV_PBE-1.0.oncvpsp.upf
     MD5 check sum: be037bb81c227cfb9b1461a9f099f4bd
     Pseudo is Norm-conserving, Zval = 16.0
     Generated using ONCVPSP code by D. R. Hamann
     Using radial grid of 1458 points,  6 beta functions with:
                l(1) =   0
                l(2) =   0
                l(3) =   1
                l(4) =   1
                l(5) =   2
                l(6) =   2

     PseudoPot. # 3 for H  read from file:
     /gpfs/group/ixd4/default/Simon/pseudopotentials/materialscloud/SSSP_1.3.0_PBE_efficiency/H.pbe-rrkjus_psl.1.0.0.UPF
     MD5 check sum: f52b6d4d1c606e5624b1dc7b2218f220
     Pseudo is Ultrasoft, Zval =  1.0
     Generated using "atomic" code by A. Dal Corso  v.5.1
     Using radial grid of  929 points,  2 beta functions with:
                l(1) =   0
                l(2) =   0
     Q(r) pseudized with 0 coefficients

     atomic species   valence    mass     pseudopotential
        O              6.00    15.99940     O ( 1.00)
        Ru            16.00   101.07000     Ru( 1.00)
        H              1.00     1.00794     H ( 1.00)

      4 Sym. Ops. (no inversion) found

   Cartesian axes

     site n.     atom                  positions (alat units)
         1           O   tau(   1) = (   0.0001213   0.4689304   0.9179195  )
         2           O   tau(   2) = (   0.4879988   0.4689304   0.9282483  )
         3           O   tau(   3) = (  -0.0027235   0.0000000   0.9899755  )
         4           O   tau(   4) = (   0.4988494   0.0000000   1.0474718  )
         5           Ru  tau(   5) = (   0.2616680   0.0000000   1.2227706  )
         6           Ru  tau(   6) = (   0.7375317   0.0000000   1.2214895  )
         7           O   tau(   7) = (   0.2471994   0.2902414   1.2238413  )
         8           O   tau(   8) = (   0.7528750   0.2911804   1.2197479  )
         9           Ru  tau(   9) = (   0.0006495   0.4689304   1.2263366  )
        10           Ru  tau(  10) = (   0.5014979   0.4689304   1.1960821  )
        11           O   tau(  11) = (   0.2471994   0.6476195   1.2238413  )
        12           O   tau(  12) = (   0.7528750   0.6466804   1.2197479  )
        13           O   tau(  13) = (  -0.0013495   0.0000000   1.4031412  )
        14           O   tau(  14) = (   0.4998548   0.0000000   1.4079221  )
        15           O   tau(  15) = (   0.0009982   0.4689304   1.5265337  )
        16           O   tau(  16) = (   0.5008252   0.4689304   1.5092935  )
        17           Ru  tau(  17) = (   0.0001500   0.0000000   1.7076210  )
        18           Ru  tau(  18) = (   0.5002533   0.0000000   1.7076210  )
        19           O   tau(  19) = (   0.2494092   0.1763413   1.7076210  )
        20           O   tau(  20) = (   0.7511520   0.1764600   1.7076210  )
        21           Ru  tau(  21) = (   0.2553663   0.4689304   1.7076210  )
        22           Ru  tau(  22) = (   0.7466217   0.4689304   1.7076210  )
        23           O   tau(  23) = (   0.2494092   0.7615206   1.7076210  )
        24           O   tau(  24) = (   0.7511520   0.7614018   1.7076210  )
        25           O   tau(  25) = (   0.0009982   0.4689304   1.8887049  )
        26           O   tau(  26) = (   0.5008252   0.4689304   1.9059451  )
        27           O   tau(  27) = (  -0.0013495   0.0000000   2.0120974  )
        28           O   tau(  28) = (   0.4998548   0.0000000   2.0073166  )
        29           Ru  tau(  29) = (   0.2616680   0.0000000   2.1924680  )
        30           Ru  tau(  30) = (   0.7375317   0.0000000   2.1937491  )
        31           O   tau(  31) = (   0.2471994   0.2902414   2.1913973  )
        32           O   tau(  32) = (   0.7528750   0.2911804   2.1954908  )
        33           Ru  tau(  33) = (   0.0006495   0.4689304   2.1889020  )
        34           Ru  tau(  34) = (   0.5014979   0.4689304   2.2191566  )
        35           O   tau(  35) = (   0.2471994   0.6476195   2.1913973  )
        36           O   tau(  36) = (   0.7528750   0.6466804   2.1954908  )
        37           O   tau(  37) = (  -0.0027235   0.0000000   2.4252666  )
        38           O   tau(  38) = (   0.4988494   0.0000000   2.3677702  )
        39           O   tau(  39) = (   0.0001213   0.4689304   2.4973192  )
        40           O   tau(  40) = (   0.4879988   0.4689304   2.4869904  )
        41           H   tau(  41) = (   0.1429768   0.4689304   0.8693754  )
        42           H   tau(  42) = (   0.1429768   0.4689304   2.5458598  )
        43           H   tau(  43) = (  -0.0065847   0.1238945   0.9003524  )
        44           H   tau(  44) = (  -0.0065847   0.1238945   2.5148829  )
        45           H   tau(  45) = (  -0.0065847   0.8139664   0.9003524  )
        46           H   tau(  46) = (  -0.0065847   0.8139664   2.5148829  )

     number of k points=     1  Marzari-Vanderbilt smearing, width (Ry)=  0.0300
                       cart. coord. in units 2pi/alat
        k(    1) = (   0.2500000   0.2665641   0.0000000), wk =   2.0000000

     Check: negative core charge=   -0.000001

     Initial potential from superposition of free atoms

     starting charge     365.9933, renormalised to     366.0000

     add environment contribution to local potential
     Polarization accuracy = 4.6E-12, # of iterations =  24

     negative rho (up, down):  3.168E-05 0.000E+00
     Starting wfcs are  238 randomized atomic wfcs
     Checking if some PAW data can be deallocated...

     Self-consistent Calculation

     iteration #  1     ecut=    50.00 Ry     beta= 0.70
     Davidson diagonalization with overlap
     ethr =  1.00E-02,  avg # of iterations =  2.0

     total energy              =   -3432.82312690 Ry
     estimated scf accuracy    <       9.61955413 Ry
     electrostatic embedding   =      -0.00171040 Ry
     cavitation energy         =       0.01956589 Ry
     PV energy                 =      -0.08510983 Ry
     correction to one-el term =     218.71630694 Ry

[...]

     negative rho (up, down):  7.645E-07 0.000E+00

[...]

     the potential shift due to the Gaussian-smeared nuclei is    -1.3296 ev

     End of self-consistent calculation

[...]
     atom   18 type  2   force =    -0.02422758    0.00000000   -0.00581921
     atom   19 type  1   force =     0.17991301   -1.16368139   -0.00244796
     atom   20 type  1   force =    -0.18053526   -1.18425343   -0.00245271
     atom   21 type  2   force =    -0.93442072    0.00000000   -0.00601312
     atom   22 type  2   force =     0.82617611    0.00000000   -0.00602493
     atom   23 type  1   force =     0.17991144    1.16332340   -0.00244796
     atom   24 type  1   force =    -0.18053570    1.18389606   -0.00245271
     atom   25 type  1   force =     0.15597777   -0.00000000  -24.79307336
     atom   26 type  1   force =    -0.14259589    0.00000000  -27.32942470
     atom   27 type  1   force =     0.02411927   -0.00000000  -39.53895714
     atom   28 type  1   force =    -0.19773358    0.00000000  -36.50748401
     atom   29 type  2   force =     6.22611318    0.00000000 -169.73902716
     atom   30 type  2   force =    -5.90563408    0.00000000 -170.34187549
     atom   31 type  1   force =     0.32479874    0.90609183  -61.90152858
     atom   32 type  1   force =    -0.55412480    0.88519416  -63.66893664
     atom   33 type  2   force =     1.20483610    0.00000000 -166.11094758
     atom   34 type  2   force =    -1.15087181    0.00000000 -173.66969099
     atom   35 type  1   force =     0.32479874   -0.90609183  -61.90152858
     atom   36 type  1   force =    -0.55412480   -0.88519416  -63.66893664
     atom   37 type  1   force =    -0.01692303   -0.00000000  -89.92193629
     atom   38 type  1   force =    -0.13344739   -0.00000000  -93.45392704
     atom   39 type  1   force =     1.70719777    0.00000000  -93.93162548
     atom   40 type  1   force =    -0.23499882    0.00000000  -98.79317222
     atom   41 type  3   force =    -2.69720238    0.00000000   16.06628052
     atom   42 type  3   force =    -2.69720238    0.00000000  -16.06628052
     atom   43 type  3   force =     0.08720310   -2.20820593   16.80408907
     atom   44 type  3   force =     0.08720310   -2.20820593  -16.80408907
     atom   45 type  3   force =     0.08720310    2.20820593   16.80408907
     atom   46 type  3   force =     0.08720310    2.20820593  -16.80408907
     The core correction contribution to forces
     atom    1 type  1   force =    -0.01719734    0.00000000   -0.00502465
     atom    2 type  1   force =    -0.00000461   -0.00000000   -0.01017900
     atom    3 type  1   force =     0.00053702    0.00000000    0.01331498
     atom    4 type  1   force =     0.00001120   -0.00000000   -0.01182376
     atom    5 type  2   force =     0.00000000    0.00000000    0.00000000
     atom    6 type  2   force =     0.00000000    0.00000000    0.00000000
     atom    7 type  1   force =    -0.00056543   -0.00013187    0.00100130
     atom    8 type  1   force =     0.00101717   -0.00010786    0.00036545
     atom    9 type  2   force =     0.00000000    0.00000000    0.00000000
     atom   10 type  2   force =     0.00000000    0.00000000    0.00000000
     atom   11 type  1   force =    -0.00056543    0.00013187    0.00100130
     atom   12 type  1   force =     0.00101717    0.00010786    0.00036545
     atom   13 type  1   force =     0.00005442   -0.00000000   -0.00122384
     atom   14 type  1   force =     0.00020286   -0.00000000    0.00245431
     atom   15 type  1   force =     0.00018380   -0.00000000    0.00049151
     atom   16 type  1   force =    -0.00001246    0.00000000   -0.00319049
     atom   17 type  2   force =     0.00000000    0.00000000    0.00000000
     atom   18 type  2   force =     0.00000000    0.00000000    0.00000000
     atom   19 type  1   force =    -0.00042128   -0.00017765   -0.00000202
     atom   20 type  1   force =     0.00026468   -0.00011845   -0.00000203
     atom   21 type  2   force =     0.00000000    0.00000000    0.00000000
     atom   22 type  2   force =     0.00000000    0.00000000    0.00000000
     atom   23 type  1   force =    -0.00042128    0.00017708   -0.00000202
     atom   24 type  1   force =     0.00026469    0.00011789   -0.00000203
     atom   25 type  1   force =     0.00018378   -0.00000000   -0.00049374
     atom   26 type  1   force =    -0.00001244   -0.00000000    0.00318840
     atom   27 type  1   force =     0.00005442   -0.00000000    0.00122158
     atom   28 type  1   force =     0.00020289   -0.00000000   -0.00245667
     atom   29 type  2   force =     0.00000000    0.00000000    0.00000000
     atom   30 type  2   force =     0.00000000    0.00000000    0.00000000
     atom   31 type  1   force =    -0.00056532   -0.00013184   -0.00100299
     atom   32 type  1   force =     0.00101703   -0.00010777   -0.00036720
     atom   33 type  2   force =     0.00000000    0.00000000    0.00000000
     atom   34 type  2   force =     0.00000000    0.00000000    0.00000000
     atom   35 type  1   force =    -0.00056532    0.00013184   -0.00100299
     atom   36 type  1   force =     0.00101703    0.00010777   -0.00036720
     atom   37 type  1   force =     0.00053704    0.00000000   -0.01331867
     atom   38 type  1   force =     0.00001114    0.00000000    0.01182006
     atom   39 type  1   force =    -0.01719808   -0.00000000    0.00502227
     atom   40 type  1   force =    -0.00000475    0.00000000    0.01017706
     atom   41 type  3   force =     0.00000000    0.00000000    0.00000000
     atom   42 type  3   force =     0.00000000    0.00000000    0.00000000
     atom   43 type  3   force =     0.00000000    0.00000000    0.00000000
     atom   44 type  3   force =     0.00000000    0.00000000    0.00000000
     atom   45 type  3   force =     0.00000000    0.00000000    0.00000000
     atom   46 type  3   force =     0.00000000    0.00000000    0.00000000
     The Hubbard contrib.    to forces
     atom    1 type  1   force =     0.00000000    0.00000000    0.00000000
     atom    2 type  1   force =     0.00000000    0.00000000    0.00000000
     atom    3 type  1   force =     0.00000000    0.00000000    0.00000000
     atom    4 type  1   force =     0.00000000    0.00000000    0.00000000
     atom    5 type  2   force =     0.00000000    0.00000000    0.00000000
     atom    6 type  2   force =     0.00000000    0.00000000    0.00000000
     atom    7 type  1   force =     0.00000000    0.00000000    0.00000000
     atom    8 type  1   force =     0.00000000    0.00000000    0.00000000
     atom    9 type  2   force =     0.00000000    0.00000000    0.00000000
     atom   10 type  2   force =     0.00000000    0.00000000    0.00000000
     atom   11 type  1   force =     0.00000000    0.00000000    0.00000000
     atom   12 type  1   force =     0.00000000    0.00000000    0.00000000
     atom   13 type  1   force =     0.00000000    0.00000000    0.00000000
     atom   14 type  1   force =     0.00000000    0.00000000    0.00000000
     atom   15 type  1   force =     0.00000000    0.00000000    0.00000000
     atom   16 type  1   force =     0.00000000    0.00000000    0.00000000
     atom   17 type  2   force =     0.00000000    0.00000000    0.00000000
     atom   18 type  2   force =     0.00000000    0.00000000    0.00000000
     atom   19 type  1   force =     0.00000000    0.00000000    0.00000000
     atom   20 type  1   force =     0.00000000    0.00000000    0.00000000
     atom   21 type  2   force =     0.00000000    0.00000000    0.00000000
     atom   22 type  2   force =     0.00000000    0.00000000    0.00000000
     atom   23 type  1   force =     0.00000000    0.00000000    0.00000000
     atom   24 type  1   force =     0.00000000    0.00000000    0.00000000
     atom   25 type  1   force =     0.00000000    0.00000000    0.00000000
     atom   26 type  1   force =     0.00000000    0.00000000    0.00000000
     atom   27 type  1   force =     0.00000000    0.00000000    0.00000000
     atom   28 type  1   force =     0.00000000    0.00000000    0.00000000
     atom   29 type  2   force =     0.00000000    0.00000000    0.00000000
     atom   30 type  2   force =     0.00000000    0.00000000    0.00000000
     atom   31 type  1   force =     0.00000000    0.00000000    0.00000000
     atom   32 type  1   force =     0.00000000    0.00000000    0.00000000
     atom   33 type  2   force =     0.00000000    0.00000000    0.00000000
     atom   34 type  2   force =     0.00000000    0.00000000    0.00000000
     atom   35 type  1   force =     0.00000000    0.00000000    0.00000000
     atom   36 type  1   force =     0.00000000    0.00000000    0.00000000
     atom   37 type  1   force =     0.00000000    0.00000000    0.00000000
     atom   38 type  1   force =     0.00000000    0.00000000    0.00000000
     atom   39 type  1   force =     0.00000000    0.00000000    0.00000000
     atom   40 type  1   force =     0.00000000    0.00000000    0.00000000
     atom   41 type  3   force =     0.00000000    0.00000000    0.00000000
     atom   42 type  3   force =     0.00000000    0.00000000    0.00000000
     atom   43 type  3   force =     0.00000000    0.00000000    0.00000000
     atom   44 type  3   force =     0.00000000    0.00000000    0.00000000
     atom   45 type  3   force =     0.00000000    0.00000000    0.00000000
     atom   46 type  3   force =     0.00000000    0.00000000    0.00000000
     The SCF correction term to forces
     atom    1 type  1   force =    -0.00000020   -0.00000000    0.00000170
     atom    2 type  1   force =     0.00000024   -0.00000000    0.00000139
     atom    3 type  1   force =    -0.00000086   -0.00000000    0.00000151
     atom    4 type  1   force =     0.00000037    0.00000000    0.00000146
     atom    5 type  2   force =     0.00000111   -0.00000000    0.00000529
     atom    6 type  2   force =    -0.00000073   -0.00000000    0.00000428
     atom    7 type  1   force =     0.00000031    0.00000068    0.00000179
     atom    8 type  1   force =    -0.00000017    0.00000069    0.00000160
     atom    9 type  2   force =    -0.00000055    0.00000000    0.00000409
     atom   10 type  2   force =     0.00000062    0.00000000    0.00000516
     atom   11 type  1   force =     0.00000031   -0.00000068    0.00000179
     atom   12 type  1   force =    -0.00000017   -0.00000069    0.00000160
     atom   13 type  1   force =    -0.00000005   -0.00000000    0.00000164
     atom   14 type  1   force =     0.00000004   -0.00000000    0.00000192
     atom   15 type  1   force =    -0.00000015    0.00000000    0.00000113
     atom   16 type  1   force =     0.00000034   -0.00000000    0.00000068
     atom   17 type  2   force =     0.00000020   -0.00000000    0.00000002
     atom   18 type  2   force =     0.00000051   -0.00000000    0.00000002
     atom   19 type  1   force =     0.00000021   -0.00000007    0.00000001
     atom   20 type  1   force =    -0.00000082    0.00000016    0.00000001
     atom   21 type  2   force =    -0.00000020    0.00000000    0.00000002
     atom   22 type  2   force =    -0.00000050    0.00000000    0.00000002
     atom   23 type  1   force =     0.00000021    0.00000007    0.00000001
     atom   24 type  1   force =    -0.00000082   -0.00000016    0.00000001
     atom   25 type  1   force =    -0.00000015    0.00000000   -0.00000112
     atom   26 type  1   force =     0.00000034   -0.00000000   -0.00000067
     atom   27 type  1   force =    -0.00000005   -0.00000000   -0.00000163
     atom   28 type  1   force =     0.00000004   -0.00000000   -0.00000191
     atom   29 type  2   force =     0.00000110   -0.00000000   -0.00000527
     atom   30 type  2   force =    -0.00000073   -0.00000000   -0.00000427
     atom   31 type  1   force =     0.00000031    0.00000068   -0.00000179
     atom   32 type  1   force =    -0.00000017    0.00000069   -0.00000159
     atom   33 type  2   force =    -0.00000055    0.00000000   -0.00000408
     atom   34 type  2   force =     0.00000062    0.00000000   -0.00000515
     atom   35 type  1   force =     0.00000031   -0.00000068   -0.00000179
     atom   36 type  1   force =    -0.00000017   -0.00000069   -0.00000159
     atom   37 type  1   force =    -0.00000086    0.00000000   -0.00000151
     atom   38 type  1   force =     0.00000037   -0.00000000   -0.00000146
     atom   39 type  1   force =    -0.00000020    0.00000000   -0.00000170
     atom   40 type  1   force =     0.00000024   -0.00000000   -0.00000140
     atom   41 type  3   force =     0.00000001   -0.00000000    0.00000025
     atom   42 type  3   force =     0.00000001   -0.00000000   -0.00000025
     atom   43 type  3   force =    -0.00000008    0.00000009    0.00000018
     atom   44 type  3   force =    -0.00000008    0.00000009   -0.00000018
     atom   45 type  3   force =    -0.00000008   -0.00000009    0.00000018
     atom   46 type  3   force =    -0.00000008   -0.00000009   -0.00000018

     Total force =     0.000304     Total SCF correction =     0.000016
     Energy error            =      2.5E-07 Ry
     Gradient error          =      6.9E-05 Ry/Bohr

     bfgs converged in  26 scf cycles and  25 bfgs steps
     (criteria: energy <  1.0E-04 Ry, force <  1.0E-04 Ry/Bohr)

     End of BFGS Geometry Optimization

     Final energy             =   -3435.1829935440 Ry

     File /storage/home/mgm6007/ixd4/Maria/Strain2_Files/RuO2-110-0-024/RuO2-110-0-024.bfgs deleted, as requested
Begin final coordinates

ATOMIC_POSITIONS (crystal)
O             0.0109198526        0.5000000000        0.2686093222
O             0.4816164377        0.5000000000        0.2714657172
O            -0.0027965076        0.0000000000        0.2900521891
O             0.4976344032        0.0000000000        0.3066954792
Ru            0.2606243871        0.0000000000        0.3579875238
Ru            0.7368705405        0.0000000000        0.3574021927
O             0.2465899684        0.3092074880        0.3587101685
O             0.7520250047        0.3107789607        0.3564377753
Ru            0.0004111031        0.5000000000        0.3588280587
Ru            0.5005855235        0.5000000000        0.3498795269
O             0.2465899684        0.6907925120        0.3587101685
O             0.7520250047        0.6892210393        0.3564377753
O            -0.0033654711        0.0000000000        0.4109103898
O             0.4991157487        0.0000000000        0.4119859345
O            -0.0006664042        0.5000000000        0.4466620824
O             0.4995026110        0.5000000000        0.4420830544
Ru           -0.0021931479        0.0000000000        0.5000010000
Ru            0.4981393493        0.0000000000        0.5000010000
O             0.2471401321        0.1879262393        0.5000010000
O             0.7480725093        0.1881938146        0.5000010000
Ru            0.2544185282        0.5000000000        0.5000010000
Ru            0.7450826753        0.5000000000        0.5000010000
O             0.2471401321        0.8120747607        0.5000010000
O             0.7480725093        0.8118071854        0.5000010000
O            -0.0006664042        0.5000000000        0.5533389176
O             0.4995026110        0.5000000000        0.5579179456
O            -0.0033654711        0.0000000000        0.5890906102
O             0.4991157487        0.0000000000        0.5880150655
Ru            0.2606243871        0.0000000000        0.6420134762
Ru            0.7368705405        0.0000000000        0.6425988073
O             0.2465899684        0.3092074880        0.6412908315
O             0.7520250047        0.3107789607        0.6435632247
Ru            0.0004111031        0.5000000000        0.6411729413
Ru            0.5005855235        0.5000000000        0.6501214731
O             0.2465899684        0.6907925120        0.6412908315
O             0.7520250047        0.6892210393        0.6435632247
O            -0.0027965076        0.0000000000        0.7099498109
O             0.4976344032        0.0000000000        0.6933065208
O             0.0109198526        0.5000000000        0.7313916778
O             0.4816164377        0.5000000000        0.7285352828
H             0.1567473419        0.5000000000        0.2564922742
H             0.1567473419        0.5000000000        0.7435077258
H            -0.0048654282        0.1316624560        0.2636229202
H            -0.0048654282        0.1316624560        0.7363770798
H            -0.0048654282        0.8683375440        0.2636229202
H            -0.0048654282        0.8683375440        0.7363770798
End final coordinates

     Writing all to output data dir /storage/home/mgm6007/ixd4/Maria/Strain2_Files/RuO2-110-0-024/RuO2-110-0-024.save/

     General routines

     Parallel routines

     Environ routines

   This run was terminated on:  22: 2:12  25Jul2023

   JOB DONE.