     Program PWSCF v.7.2 starts on 27Jul2023 at 11:59:40
        Git branch: heads/qe-7.2
        Last git commit: b4c5e8deeb7d1863e7553a87b45f8d22c21926a5
        Last git commit date: Mon Mar 27 16:12:09 2023 +0000
        Last git commit subject: Merge branch 'merge_fix_hubbard' into 'develop'

     Reading input from RuO2-110-0-234.in

     Current dimensions of program PWSCF are:
     Max number of different atomic species (ntypx) = 10
     Max number of k-points (npk) =  40000
     Max angular momentum in pseudopotentials (lmaxx) =  4

     Reading input from environ.in:
     * Environ restarting
     * setting up water environment
     * using electronic solvent mode
     * setting boundary derivatives method to SCCS default

     File /storage/home/mgm6007/ixd4/Maria/Strain2_Files/RuO2-110-0-234/RuO2-110-0-234.update deleted, as requested

     File /storage/home/mgm6007/ixd4/Maria/Strain2_Files/RuO2-110-0-234/RuO2-110-0-234.bfgs deleted, as requested
     file O.pbe-n-kjpaw_psl.0.1.UPF: wavefunction(s)  2P renormalized
     Message from routine setup:
     using ibrav=0 with symmetry is DISCOURAGED, use correct ibrav instead

     R & G space division:  proc/nbgrp/npool/nimage =      20
     Subspace diagonalization in iterative solution of the eigenvalue problem:
     one sub-group per band group will be used

     Using Slab Decomposition

     bravais-lattice index     =            0
     lattice parameter (alat)  =      12.2467  a.u.
     unit-cell volume          =    5883.2137 (a.u.)^3
     number of atoms/cell      =           46
     number of atomic types    =            3
     number of electrons       =       366.00
     number of Kohn-Sham states=          220
     kinetic-energy cutoff     =      50.0000  Ry
     charge density cutoff     =     500.0000  Ry
     scf convergence threshold =      1.0E-09
     mixing beta               =       0.7000
     number of iterations used =            8  local-TF  mixing
     energy convergence thresh.=      1.0E-04
     force convergence thresh. =      1.0E-04
     Exchange-correlation= PBE
                           (   1   4   3   4   0   0   0)
     nstep                     =          200

                                  Environ Setup Summary

          O. Andreussi, I. Dabo and N. Marzari, J. Chem. Phys. 136, 064102 (2012)

     in publications or presentations arising from this work.

     Parameters

     compensation onset threshold      =               0.1000E+00
     static permittivity               =                    78.30
     surface tension in input (dyn/cm) =                    47.90
     surface tension in internal units =               0.6153E-04
     external pressure in input (GPa)  =                    -0.36
     external pressure in inter. units =              -0.2447E-04

     Solvent Boundary

     solvent mode                      =               electronic
     derivatives method                =                    chain
     numerical core for derivatives    =                      fft
     switching function adopted        =                     SCCS
     density limit for vacuum region   =               0.5000E-02
     density limit for bulk solvent    =               0.1000E-03

     Electrostatic Setup

     electrostatic problem to solve    =              generalized
     numerical solver adopted          =                       cg
     type of auxiliary density adopted =                     none
     numerical core for poisson        =                      fft
     type of pbc corrections           =                parabolic
     numerical core for corrections    =                      1da

     celldm(1)=  12.246684  celldm(2)=   0.000000  celldm(3)=   0.000000
     celldm(4)=   0.000000  celldm(5)=   0.000000  celldm(6)=   0.000000

     crystal axes: (cart. coord. in units of alat)
               a(1) = (   1.000000   0.000000   0.000000 )
               a(2) = (   0.000000   0.937861   0.000000 )
               a(3) = (   0.000000   0.000000   3.415235 )

     reciprocal axes: (cart. coord. in units 2 pi/alat)
               b(1) = (  1.000000  0.000000  0.000000 )
               b(2) = (  0.000000  1.066256  0.000000 )
               b(3) = (  0.000000  0.000000  0.292806 )

     PseudoPot. # 1 for O  read from file:
     /gpfs/group/ixd4/default/Simon/pseudopotentials/materialscloud/SSSP_1.3.0_PBE_efficiency/O.pbe-n-kjpaw_psl.0.1.UPF
     MD5 check sum: 0234752ac141de4415c5fc33072bef88
     Pseudo is Projector augmented-wave + core cor, Zval =  6.0
     Generated using "atomic" code by A. Dal Corso  v.5.0.99 svn rev. 10869
     Shape of augmentation charge: BESSEL
     Using radial grid of 1095 points,  4 beta functions with:
                l(1) =   0
                l(2) =   0
                l(3) =   1
                l(4) =   1
     Q(r) pseudized with 0 coefficients

     PseudoPot. # 2 for Ru read from file:
     /gpfs/group/ixd4/default/Simon/pseudopotentials/materialscloud/SSSP_1.3.0_PBE_efficiency/Ru_ONCV_PBE-1.0.oncvpsp.upf
     MD5 check sum: be037bb81c227cfb9b1461a9f099f4bd
     Pseudo is Norm-conserving, Zval = 16.0
     Generated using ONCVPSP code by D. R. Hamann
     Using radial grid of 1458 points,  6 beta functions with:
                l(1) =   0
                l(2) =   0
                l(3) =   1
                l(4) =   1
                l(5) =   2
                l(6) =   2

     PseudoPot. # 3 for H  read from file:
     /gpfs/group/ixd4/default/Simon/pseudopotentials/materialscloud/SSSP_1.3.0_PBE_efficiency/H.pbe-rrkjus_psl.1.0.0.UPF
     MD5 check sum: f52b6d4d1c606e5624b1dc7b2218f220
     Pseudo is Ultrasoft, Zval =  1.0
     Generated using "atomic" code by A. Dal Corso  v.5.1
     Using radial grid of  929 points,  2 beta functions with:
                l(1) =   0
                l(2) =   0
     Q(r) pseudized with 0 coefficients

     atomic species   valence    mass     pseudopotential
        O              6.00    15.99940     O ( 1.00)
        Ru            16.00   101.07000     Ru( 1.00)
        H              1.00     1.00794     H ( 1.00)

      4 Sym. Ops. (no inversion) found

   Cartesian axes

     site n.     atom                  positions (alat units)
         1           O   tau(   1) = (   0.0000000   0.3943625   0.9343116  )
         2           O   tau(   2) = (   0.5000000   0.4140765   0.9344352  )
         3           O   tau(   3) = (   0.0000000   0.0159391   0.9998765  )
         4           O   tau(   4) = (   0.5000000   0.0091145   1.0301016  )
         5           Ru  tau(   5) = (   0.2540078  -0.0043832   1.2302102  )
         6           Ru  tau(   6) = (   0.7459922  -0.0043832   1.2302102  )
         7           O   tau(   7) = (   0.2526104   0.2861841   1.2474945  )
         8           O   tau(   8) = (   0.7473896   0.2861841   1.2474945  )
         9           Ru  tau(   9) = (   0.0000000   0.4613663   1.2037921  )
        10           Ru  tau(  10) = (   0.5000000   0.4630024   1.2011514  )
        11           O   tau(  11) = (   0.2470524   0.6439027   1.1969973  )
        12           O   tau(  12) = (   0.7529476   0.6439027   1.1969973  )
        13           O   tau(  13) = (   0.0000000  -0.0092589   1.4061509  )
        14           O   tau(  14) = (   0.5000000  -0.0100235   1.4087548  )
        15           O   tau(  15) = (   0.0000000   0.4796428   1.5153908  )
        16           O   tau(  16) = (   0.5000000   0.4796632   1.5206769  )
        17           Ru  tau(  17) = (   0.0000000   0.0042126   1.7076210  )
        18           Ru  tau(  18) = (   0.5000000   0.0044517   1.7076210  )
        19           O   tau(  19) = (   0.2487960   0.1814819   1.7076210  )
        20           O   tau(  20) = (   0.7512040   0.1814819   1.7076210  )
        21           Ru  tau(  21) = (   0.2488007   0.4737367   1.7076210  )
        22           Ru  tau(  22) = (   0.7511993   0.4737367   1.7076210  )
        23           O   tau(  23) = (   0.2498020   0.7665791   1.7076210  )
        24           O   tau(  24) = (   0.7501980   0.7665791   1.7076210  )
        25           O   tau(  25) = (   0.0000000   0.4796428   1.8998478  )
        26           O   tau(  26) = (   0.5000000   0.4796632   1.8945618  )
        27           O   tau(  27) = (   0.0000000  -0.0092589   2.0090878  )
        28           O   tau(  28) = (   0.5000000  -0.0100235   2.0064838  )
        29           Ru  tau(  29) = (   0.2540078  -0.0043832   2.1850285  )
        30           Ru  tau(  30) = (   0.7459922  -0.0043832   2.1850285  )
        31           O   tau(  31) = (   0.2526104   0.2861841   2.1677441  )
        32           O   tau(  32) = (   0.7473896   0.2861841   2.1677441  )
        33           Ru  tau(  33) = (   0.0000000   0.4613663   2.2114465  )
        34           Ru  tau(  34) = (   0.5000000   0.4630024   2.2140872  )
        35           O   tau(  35) = (   0.2470524   0.6439027   2.2182413  )
        36           O   tau(  36) = (   0.7529476   0.6439027   2.2182413  )
        37           O   tau(  37) = (   0.0000000   0.0159391   2.4153655  )
        38           O   tau(  38) = (   0.5000000   0.0091145   2.3851405  )
        39           O   tau(  39) = (   0.0000000   0.3943625   2.4809270  )
        40           O   tau(  40) = (   0.5000000   0.4140765   2.4808034  )
        41           H   tau(  41) = (   0.0000000   0.1676304   0.9396419  )
        42           H   tau(  42) = (   0.0000000   0.1676304   2.4755933  )
        43           H   tau(  43) = (   0.5000000   0.1421689   0.9529041  )
        44           H   tau(  44) = (   0.5000000   0.1421689   2.4623311  )
        45           H   tau(  45) = (   0.0000000   0.8558552   0.8831130  )
        46           H   tau(  46) = (   0.0000000   0.8558552   2.5321222  )

     number of k points=     1  Marzari-Vanderbilt smearing, width (Ry)=  0.0300
                       cart. coord. in units 2pi/alat
        k(    1) = (   0.2500000   0.2665641   0.0000000), wk =   2.0000000

     Check: negative core charge=   -0.000001

     Initial potential from superposition of free atoms

     starting charge     365.9933, renormalised to     366.0000

     add environment contribution to local potential
     Polarization accuracy = 3.0E-12, # of iterations =  24

     negative rho (up, down):  3.642E-05 0.000E+00
     Starting wfcs are  238 randomized atomic wfcs
     Checking if some PAW data can be deallocated...

     Self-consistent Calculation

     iteration #  1     ecut=    50.00 Ry     beta= 0.70
     Davidson diagonalization with overlap
     ethr =  1.00E-02,  avg # of iterations =  2.0

     total energy              =   -3432.70290671 Ry
     estimated scf accuracy    <       9.89302854 Ry
     electrostatic embedding   =      -0.00167896 Ry
     cavitation energy         =       0.01951198 Ry
     PV energy                 =      -0.08419655 Ry
     correction to one-el term =     218.73232749 Ry

[...]

     negative rho (up, down):  1.546E-04 0.000E+00

[...]

     the potential shift due to the Gaussian-smeared nuclei is    -1.3296 ev

     End of self-consistent calculation

[...]
     atom   18 type  2   force =     0.00000000    0.79711741   -0.00583956
     atom   19 type  1   force =    -0.11738951   -1.40862470   -0.00244702
     atom   20 type  1   force =     0.11738951   -1.40862470   -0.00244702
     atom   21 type  2   force =    -1.69802634   -0.14804369   -0.00602499
     atom   22 type  2   force =     1.69802634   -0.14804369   -0.00602499
     atom   23 type  1   force =    -0.08294154    1.43373838   -0.00244795
     atom   24 type  1   force =     0.08294154    1.43373838   -0.00244795
     atom   25 type  1   force =     0.00000000    0.18042814  -25.51058147
     atom   26 type  1   force =    -0.00000000    0.20089008  -27.42140109
     atom   27 type  1   force =    -0.00000000   -0.27150542  -37.93767225
     atom   28 type  1   force =     0.00000000   -0.41970596  -37.88399646
     atom   29 type  2   force =    -0.09385184   -0.86113660 -169.10095440
     atom   30 type  2   force =     0.09385184   -0.86113660 -169.10095440
     atom   31 type  1   force =    -0.52452117    0.62555646  -64.83165191
     atom   32 type  1   force =     0.52452117    0.62555646  -64.83165191
     atom   33 type  2   force =    -0.00000000    1.17718013 -168.64253760
     atom   34 type  2   force =     0.00000000    0.68023925 -173.86048735
     atom   35 type  1   force =    -0.56059634   -0.36569680  -61.10756735
     atom   36 type  1   force =     0.56059634   -0.36569680  -61.10756735
     atom   37 type  1   force =     0.00000000   -1.71837178  -91.90850439
     atom   38 type  1   force =    -0.00000000    0.15666453  -91.28139881
     atom   39 type  1   force =    -0.00000000   -1.02769232  -94.50055383
     atom   40 type  1   force =     0.00000000    0.12902146  -99.23810705
     atom   41 type  3   force =     0.00000000    2.90340496   16.51275645
     atom   42 type  3   force =    -0.00000000    2.90340496  -16.51275645
     atom   43 type  3   force =     0.00000000   -0.73367501   18.20026756
     atom   44 type  3   force =     0.00000000   -0.73367501  -18.20026756
     atom   45 type  3   force =     0.00000000    1.85704412   16.98604811
     atom   46 type  3   force =     0.00000000    1.85704412  -16.98604811
     The core correction contribution to forces
     atom    1 type  1   force =    -0.00000000    0.01666065   -0.00065759
     atom    2 type  1   force =     0.00000000    0.00009812   -0.01045214
     atom    3 type  1   force =     0.00000000    0.01425695   -0.00034629
     atom    4 type  1   force =     0.00000000   -0.00510974    0.00876266
     atom    5 type  2   force =     0.00000000    0.00000000    0.00000000
     atom    6 type  2   force =     0.00000000    0.00000000    0.00000000
     atom    7 type  1   force =    -0.00047292   -0.00050415   -0.00001917
     atom    8 type  1   force =     0.00047292   -0.00050415   -0.00001917
     atom    9 type  2   force =     0.00000000    0.00000000    0.00000000
     atom   10 type  2   force =     0.00000000    0.00000000    0.00000000
     atom   11 type  1   force =    -0.00098052    0.00028768    0.00125385
     atom   12 type  1   force =     0.00098052    0.00028768    0.00125385
     atom   13 type  1   force =     0.00000000   -0.00008458    0.00014809
     atom   14 type  1   force =     0.00000000    0.00072246    0.00002955
     atom   15 type  1   force =     0.00000000   -0.00031759   -0.00006840
     atom   16 type  1   force =    -0.00000000    0.00013735   -0.00305507
     atom   17 type  2   force =     0.00000000    0.00000000    0.00000000
     atom   18 type  2   force =     0.00000000    0.00000000    0.00000000
     atom   19 type  1   force =    -0.00015231   -0.00033197   -0.00000193
     atom   20 type  1   force =     0.00015231   -0.00033197   -0.00000193
     atom   21 type  2   force =     0.00000000    0.00000000    0.00000000
     atom   22 type  2   force =     0.00000000    0.00000000    0.00000000
     atom   23 type  1   force =    -0.00023104    0.00022353   -0.00000202
     atom   24 type  1   force =     0.00023104    0.00022353   -0.00000202
     atom   25 type  1   force =    -0.00000000   -0.00031761    0.00006612
     atom   26 type  1   force =     0.00000000    0.00013745    0.00305298
     atom   27 type  1   force =     0.00000000   -0.00008451   -0.00015028
     atom   28 type  1   force =    -0.00000000    0.00072263   -0.00003174
     atom   29 type  2   force =     0.00000000    0.00000000    0.00000000
     atom   30 type  2   force =     0.00000000    0.00000000    0.00000000
     atom   31 type  1   force =    -0.00047282   -0.00050404    0.00001732
     atom   32 type  1   force =     0.00047282   -0.00050404    0.00001732
     atom   33 type  2   force =     0.00000000    0.00000000    0.00000000
     atom   34 type  2   force =     0.00000000    0.00000000    0.00000000
     atom   35 type  1   force =    -0.00098050    0.00028758   -0.00125561
     atom   36 type  1   force =     0.00098050    0.00028758   -0.00125561
     atom   37 type  1   force =     0.00000000    0.01425911    0.00034239
     atom   38 type  1   force =    -0.00000000   -0.00511062   -0.00876841
     atom   39 type  1   force =    -0.00000000    0.01666131    0.00065478
     atom   40 type  1   force =     0.00000000    0.00009803    0.01045040
     atom   41 type  3   force =     0.00000000    0.00000000    0.00000000
     atom   42 type  3   force =     0.00000000    0.00000000    0.00000000
     atom   43 type  3   force =     0.00000000    0.00000000    0.00000000
     atom   44 type  3   force =     0.00000000    0.00000000    0.00000000
     atom   45 type  3   force =     0.00000000    0.00000000    0.00000000
     atom   46 type  3   force =     0.00000000    0.00000000    0.00000000
     The Hubbard contrib.    to forces
     atom    1 type  1   force =     0.00000000    0.00000000    0.00000000
     atom    2 type  1   force =     0.00000000    0.00000000    0.00000000
     atom    3 type  1   force =     0.00000000    0.00000000    0.00000000
     atom    4 type  1   force =     0.00000000    0.00000000    0.00000000
     atom    5 type  2   force =     0.00000000    0.00000000    0.00000000
     atom    6 type  2   force =     0.00000000    0.00000000    0.00000000
     atom    7 type  1   force =     0.00000000    0.00000000    0.00000000
     atom    8 type  1   force =     0.00000000    0.00000000    0.00000000
     atom    9 type  2   force =     0.00000000    0.00000000    0.00000000
     atom   10 type  2   force =     0.00000000    0.00000000    0.00000000
     atom   11 type  1   force =     0.00000000    0.00000000    0.00000000
     atom   12 type  1   force =     0.00000000    0.00000000    0.00000000
     atom   13 type  1   force =     0.00000000    0.00000000    0.00000000
     atom   14 type  1   force =     0.00000000    0.00000000    0.00000000
     atom   15 type  1   force =     0.00000000    0.00000000    0.00000000
     atom   16 type  1   force =     0.00000000    0.00000000    0.00000000
     atom   17 type  2   force =     0.00000000    0.00000000    0.00000000
     atom   18 type  2   force =     0.00000000    0.00000000    0.00000000
     atom   19 type  1   force =     0.00000000    0.00000000    0.00000000
     atom   20 type  1   force =     0.00000000    0.00000000    0.00000000
     atom   21 type  2   force =     0.00000000    0.00000000    0.00000000
     atom   22 type  2   force =     0.00000000    0.00000000    0.00000000
     atom   23 type  1   force =     0.00000000    0.00000000    0.00000000
     atom   24 type  1   force =     0.00000000    0.00000000    0.00000000
     atom   25 type  1   force =     0.00000000    0.00000000    0.00000000
     atom   26 type  1   force =     0.00000000    0.00000000    0.00000000
     atom   27 type  1   force =     0.00000000    0.00000000    0.00000000
     atom   28 type  1   force =     0.00000000    0.00000000    0.00000000
     atom   29 type  2   force =     0.00000000    0.00000000    0.00000000
     atom   30 type  2   force =     0.00000000    0.00000000    0.00000000
     atom   31 type  1   force =     0.00000000    0.00000000    0.00000000
     atom   32 type  1   force =     0.00000000    0.00000000    0.00000000
     atom   33 type  2   force =     0.00000000    0.00000000    0.00000000
     atom   34 type  2   force =     0.00000000    0.00000000    0.00000000
     atom   35 type  1   force =     0.00000000    0.00000000    0.00000000
     atom   36 type  1   force =     0.00000000    0.00000000    0.00000000
     atom   37 type  1   force =     0.00000000    0.00000000    0.00000000
     atom   38 type  1   force =     0.00000000    0.00000000    0.00000000
     atom   39 type  1   force =     0.00000000    0.00000000    0.00000000
     atom   40 type  1   force =     0.00000000    0.00000000    0.00000000
     atom   41 type  3   force =     0.00000000    0.00000000    0.00000000
     atom   42 type  3   force =     0.00000000    0.00000000    0.00000000
     atom   43 type  3   force =     0.00000000    0.00000000    0.00000000
     atom   44 type  3   force =     0.00000000    0.00000000    0.00000000
     atom   45 type  3   force =     0.00000000    0.00000000    0.00000000
     atom   46 type  3   force =     0.00000000    0.00000000    0.00000000
     The SCF correction term to forces
     atom    1 type  1   force =     0.00000000   -0.00000057   -0.00000051
     atom    2 type  1   force =     0.00000000   -0.00000052   -0.00000064
     atom    3 type  1   force =     0.00000000    0.00000041   -0.00000084
     atom    4 type  1   force =     0.00000000    0.00000007   -0.00000076
     atom    5 type  2   force =    -0.00000090    0.00000057   -0.00000180
     atom    6 type  2   force =     0.00000090    0.00000057   -0.00000180
     atom    7 type  1   force =    -0.00000043    0.00000029   -0.00000095
     atom    8 type  1   force =     0.00000043    0.00000029   -0.00000095
     atom    9 type  2   force =     0.00000000   -0.00000015   -0.00000204
     atom   10 type  2   force =    -0.00000000   -0.00000077   -0.00000207
     atom   11 type  1   force =    -0.00000062   -0.00000061   -0.00000059
     atom   12 type  1   force =     0.00000062   -0.00000061   -0.00000059
     atom   13 type  1   force =     0.00000000   -0.00000024   -0.00000011
     atom   14 type  1   force =     0.00000000    0.00000008   -0.00000038
     atom   15 type  1   force =     0.00000000    0.00000054   -0.00000076
     atom   16 type  1   force =    -0.00000000    0.00000001   -0.00000087
     atom   17 type  2   force =    -0.00000000   -0.00000028    0.00000000
     atom   18 type  2   force =    -0.00000000   -0.00000006    0.00000000
     atom   19 type  1   force =    -0.00000066   -0.00000021    0.00000000
     atom   20 type  1   force =     0.00000066   -0.00000021    0.00000000
     atom   21 type  2   force =    -0.00000159   -0.00000001    0.00000000
     atom   22 type  2   force =     0.00000159   -0.00000001    0.00000000
     atom   23 type  1   force =    -0.00000071    0.00000042    0.00000000
     atom   24 type  1   force =     0.00000071    0.00000042    0.00000000
     atom   25 type  1   force =     0.00000000    0.00000054    0.00000077
     atom   26 type  1   force =     0.00000000    0.00000001    0.00000088
     atom   27 type  1   force =    -0.00000000   -0.00000024    0.00000011
     atom   28 type  1   force =     0.00000000    0.00000008    0.00000038
     atom   29 type  2   force =    -0.00000090    0.00000057    0.00000180
     atom   30 type  2   force =     0.00000090    0.00000057    0.00000180
     atom   31 type  1   force =    -0.00000043    0.00000029    0.00000096
     atom   32 type  1   force =     0.00000043    0.00000029    0.00000096
     atom   33 type  2   force =     0.00000000   -0.00000015    0.00000205
     atom   34 type  2   force =    -0.00000000   -0.00000077    0.00000208
     atom   35 type  1   force =    -0.00000062   -0.00000061    0.00000059
     atom   36 type  1   force =     0.00000062   -0.00000061    0.00000059
     atom   37 type  1   force =     0.00000000    0.00000041    0.00000084
     atom   38 type  1   force =     0.00000000    0.00000007    0.00000077
     atom   39 type  1   force =     0.00000000   -0.00000057    0.00000051
     atom   40 type  1   force =    -0.00000000   -0.00000052    0.00000064
     atom   41 type  3   force =     0.00000000    0.00000005   -0.00000001
     atom   42 type  3   force =    -0.00000000    0.00000005    0.00000001
     atom   43 type  3   force =     0.00000000    0.00000005   -0.00000013
     atom   44 type  3   force =    -0.00000000    0.00000004    0.00000011
     atom   45 type  3   force =     0.00000000   -0.00000002   -0.00000011
     atom   46 type  3   force =     0.00000000   -0.00000002    0.00000011

     Total force =     0.000359     Total SCF correction =     0.000008
     Energy error            =      1.3E-07 Ry
     Gradient error          =      9.7E-05 Ry/Bohr

     bfgs converged in  68 scf cycles and  65 bfgs steps
     (criteria: energy <  1.0E-04 Ry, force <  1.0E-04 Ry/Bohr)

     End of BFGS Geometry Optimization

     Final energy             =   -3435.2389356489 Ry

     File /storage/home/mgm6007/ixd4/Maria/Strain2_Files/RuO2-110-0-234/RuO2-110-0-234.bfgs deleted, as requested
Begin final coordinates

ATOMIC_POSITIONS (crystal)
O             0.0000000000        0.5377126701        0.2687103466
O             0.5000000000        0.4943663864        0.2719122669
O             0.0000000000       -0.0151378349        0.3003661900
O             0.5000000000       -0.0098422645        0.3042054664
Ru            0.2500565088       -0.0068533159        0.3589416695
Ru            0.7499434912       -0.0068533159        0.3589416695
O             0.2434744425        0.3022193570        0.3552531605
O             0.7565255575        0.3022193570        0.3552531605
Ru            0.0000000000        0.4937555887        0.3569835032
Ru            0.5000000000        0.4943775345        0.3498344246
O             0.2492552840        0.6832626907        0.3601385539
O             0.7507447160        0.6832626907        0.3601385539
O             0.0000000000       -0.0084831134        0.4111063773
O             0.5000000000       -0.0041519816        0.4120242016
O             0.0000000000        0.4825591468        0.4468080414
O             0.5000000000        0.4827565630        0.4423377866
Ru            0.0000000000       -0.0167858252        0.5000010000
Ru            0.5000000000       -0.0173057734        0.5000010000
O             0.2500973252        0.1701884235        0.5000010000
O             0.7499026748        0.1701884235        0.5000010000
Ru            0.2527767647        0.4820823278        0.5000010000
Ru            0.7472232353        0.4820823278        0.5000010000
O             0.2505445116        0.7950250967        0.5000010000
O             0.7494554884        0.7950250967        0.5000010000
O             0.0000000000        0.4825591468        0.5531929586
O             0.5000000000        0.4827565630        0.5576632134
O             0.0000000000       -0.0084831134        0.5888946227
O             0.5000000000       -0.0041519816        0.5879767984
Ru            0.2500565088       -0.0068533159        0.6410593305
Ru            0.7499434912       -0.0068533159        0.6410593305
O             0.2434744425        0.3022193570        0.6447478395
O             0.7565255575        0.3022193570        0.6447478395
Ru            0.0000000000        0.4937555887        0.6430174968
Ru            0.5000000000        0.4943775345        0.6501665754
O             0.2492552840        0.6832626907        0.6398624461
O             0.7507447160        0.6832626907        0.6398624461
O             0.0000000000       -0.0151378349        0.6996358100
O             0.5000000000       -0.0098422645        0.6957965336
O             0.0000000000        0.5377126701        0.7312906534
O             0.5000000000        0.4943663864        0.7280887331
H             0.0000000000        0.3995024826        0.2463426479
H             0.0000000000        0.3995024826        0.7536573521
H             0.5000000000        0.0296626563        0.2614991386
H             0.5000000000        0.0296626563        0.7385008614
H             0.0000000000        0.8496316538        0.2755567097
H             0.0000000000        0.8496316538        0.7244432903
End final coordinates

     Writing all to output data dir /storage/home/mgm6007/ixd4/Maria/Strain2_Files/RuO2-110-0-234/RuO2-110-0-234.save/

     General routines

     Parallel routines

     Environ routines

   This run was terminated on:  16:46:26  29Jul2023

   JOB DONE.