     Program PWSCF v.7.2 starts on 26Jul2023 at 11:22:51
        Git branch: heads/qe-7.2
        Last git commit: b4c5e8deeb7d1863e7553a87b45f8d22c21926a5
        Last git commit date: Mon Mar 27 16:12:09 2023 +0000
        Last git commit subject: Merge branch 'merge_fix_hubbard' into 'develop'

     Reading input from RuO2-110-0-2345.in

     Current dimensions of program PWSCF are:
     Max number of different atomic species (ntypx) = 10
     Max number of k-points (npk) =  40000
     Max angular momentum in pseudopotentials (lmaxx) =  4

     Reading input from environ.in:
     * Environ restarting
     * setting up water environment
     * using electronic solvent mode
     * setting boundary derivatives method to SCCS default

     file O.pbe-n-kjpaw_psl.0.1.UPF: wavefunction(s)  2P renormalized
     Found identity + ( -0.5000  0.0000  0.0000) symmetry
     This is a supercell, fractional translations are disabled
     Message from routine setup:
     using ibrav=0 with symmetry is DISCOURAGED, use correct ibrav instead

     R & G space division:  proc/nbgrp/npool/nimage =      20
     Subspace diagonalization in iterative solution of the eigenvalue problem:
     one sub-group per band group will be used

     Using Slab Decomposition

     bravais-lattice index     =            0
     lattice parameter (alat)  =      12.3824  a.u.
     unit-cell volume          =    5825.9133 (a.u.)^3
     number of atoms/cell      =           48
     number of atomic types    =            3
     number of electrons       =       368.00
     number of Kohn-Sham states=          221
     kinetic-energy cutoff     =      50.0000  Ry
     charge density cutoff     =     500.0000  Ry
     scf convergence threshold =      1.0E-09
     mixing beta               =       0.7000
     number of iterations used =            8  local-TF  mixing
     energy convergence thresh.=      1.0E-04
     force convergence thresh. =      1.0E-04
     Exchange-correlation= PBE
                           (   1   4   3   4   0   0   0)
     nstep                     =          200

                                  Environ Setup Summary

          O. Andreussi, I. Dabo and N. Marzari, J. Chem. Phys. 136, 064102 (2012)

     in publications or presentations arising from this work.

     Parameters

     compensation onset threshold      =               0.1000E+00
     static permittivity               =                    78.30
     surface tension in input (dyn/cm) =                    47.90
     surface tension in internal units =               0.6153E-04
     external pressure in input (GPa)  =                    -0.36
     external pressure in inter. units =              -0.2447E-04

     Solvent Boundary

     solvent mode                      =               electronic
     derivatives method                =                    chain
     numerical core for derivatives    =                      fft
     switching function adopted        =                     SCCS
     density limit for vacuum region   =               0.5000E-02
     density limit for bulk solvent    =               0.1000E-03

     Electrostatic Setup

     electrostatic problem to solve    =              generalized
     numerical solver adopted          =                       cg
     type of auxiliary density adopted =                     none
     numerical core for poisson        =                      fft
     type of pbc corrections           =                parabolic
     numerical core for corrections    =                      1da

     celldm(1)=  12.382447  celldm(2)=   0.000000  celldm(3)=   0.000000
     celldm(4)=   0.000000  celldm(5)=   0.000000  celldm(6)=   0.000000

     crystal axes: (cart. coord. in units of alat)
               a(1) = (   1.000000   0.000000   0.000000 )
               a(2) = (   0.000000   0.908473   0.000000 )
               a(3) = (   0.000000   0.000000   3.377790 )

     reciprocal axes: (cart. coord. in units 2 pi/alat)
               b(1) = (  1.000000  0.000000  0.000000 )
               b(2) = (  0.000000  1.100748  0.000000 )
               b(3) = (  0.000000  0.000000  0.296052 )

     PseudoPot. # 1 for O  read from file:
     /gpfs/group/ixd4/default/Simon/pseudopotentials/materialscloud/SSSP_1.3.0_PBE_efficiency/O.pbe-n-kjpaw_psl.0.1.UPF
     MD5 check sum: 0234752ac141de4415c5fc33072bef88
     Pseudo is Projector augmented-wave + core cor, Zval =  6.0
     Generated using "atomic" code by A. Dal Corso  v.5.0.99 svn rev. 10869
     Shape of augmentation charge: BESSEL
     Using radial grid of 1095 points,  4 beta functions with:
                l(1) =   0
                l(2) =   0
                l(3) =   1
                l(4) =   1
     Q(r) pseudized with 0 coefficients

     PseudoPot. # 2 for Ru read from file:
     /gpfs/group/ixd4/default/Simon/pseudopotentials/materialscloud/SSSP_1.3.0_PBE_efficiency/Ru_ONCV_PBE-1.0.oncvpsp.upf
     MD5 check sum: be037bb81c227cfb9b1461a9f099f4bd
     Pseudo is Norm-conserving, Zval = 16.0
     Generated using ONCVPSP code by D. R. Hamann
     Using radial grid of 1458 points,  6 beta functions with:
                l(1) =   0
                l(2) =   0
                l(3) =   1
                l(4) =   1
                l(5) =   2
                l(6) =   2

     PseudoPot. # 3 for H  read from file:
     /gpfs/group/ixd4/default/Simon/pseudopotentials/materialscloud/SSSP_1.3.0_PBE_efficiency/H.pbe-rrkjus_psl.1.0.0.UPF
     MD5 check sum: f52b6d4d1c606e5624b1dc7b2218f220
     Pseudo is Ultrasoft, Zval =  1.0
     Generated using "atomic" code by A. Dal Corso  v.5.1
     Using radial grid of  929 points,  2 beta functions with:
                l(1) =   0
                l(2) =   0
     Q(r) pseudized with 0 coefficients

     atomic species   valence    mass     pseudopotential
        O              6.00    15.99940     O ( 1.00)
        Ru            16.00   101.07000     Ru( 1.00)
        H              1.00     1.00794     H ( 1.00)

      8 Sym. Ops., with inversion, found

   Cartesian axes

     site n.     atom                  positions (alat units)
         1           O   tau(   1) = (   0.0000000   0.4542364   0.9159496  )
         2           O   tau(   2) = (   0.5000000   0.4542364   0.9159509  )
         3           O   tau(   3) = (   0.0000000   0.0000000   0.9731241  )
         4           O   tau(   4) = (   0.5000000   0.0000000   0.9731241  )
         5           Ru  tau(   5) = (   0.2500000   0.0000000   1.2190012  )
         6           Ru  tau(   6) = (   0.7500000   0.0000000   1.2190012  )
         7           O   tau(   7) = (   0.2500002   0.2746731   1.2013053  )
         8           O   tau(   8) = (   0.7499998   0.2746731   1.2013053  )
         9           Ru  tau(   9) = (   0.0000000   0.4542364   1.1864348  )
        10           Ru  tau(  10) = (   0.5000000   0.4542364   1.1864360  )
        11           O   tau(  11) = (   0.2500002   0.6337998   1.2013053  )
        12           O   tau(  12) = (   0.7499998   0.6337998   1.2013053  )
        13           O   tau(  13) = (   0.0000000   0.0000000   1.3950298  )
        14           O   tau(  14) = (   0.5000000   0.0000000   1.3950299  )
        15           O   tau(  15) = (   0.0000000   0.4542364   1.4963770  )
        16           O   tau(  16) = (   0.5000000   0.4542364   1.4963851  )
        17           Ru  tau(  17) = (   0.0000000   0.0000000   1.6888985  )
        18           Ru  tau(  18) = (   0.5000000   0.0000000   1.6888985  )
        19           O   tau(  19) = (   0.2499995   0.1775505   1.6888985  )
        20           O   tau(  20) = (   0.7500005   0.1775505   1.6888985  )
        21           Ru  tau(  21) = (   0.2499972   0.4542364   1.6888985  )
        22           Ru  tau(  22) = (   0.7500028   0.4542364   1.6888985  )
        23           O   tau(  23) = (   0.2499995   0.7309232   1.6888985  )
        24           O   tau(  24) = (   0.7500005   0.7309232   1.6888985  )
        25           O   tau(  25) = (   0.0000000   0.4542364   1.8814167  )
        26           O   tau(  26) = (   0.5000000   0.4542364   1.8814086  )
        27           O   tau(  27) = (   0.0000000   0.0000000   1.9827639  )
        28           O   tau(  28) = (   0.5000000   0.0000000   1.9827638  )
        29           Ru  tau(  29) = (   0.2500000   0.0000000   2.1587925  )
        30           Ru  tau(  30) = (   0.7500000   0.0000000   2.1587925  )
        31           O   tau(  31) = (   0.2500002   0.2746731   2.1764884  )
        32           O   tau(  32) = (   0.7499998   0.2746731   2.1764884  )
        33           Ru  tau(  33) = (   0.0000000   0.4542364   2.1913589  )
        34           Ru  tau(  34) = (   0.5000000   0.4542364   2.1913577  )
        35           O   tau(  35) = (   0.2500002   0.6337998   2.1764884  )
        36           O   tau(  36) = (   0.7499998   0.6337998   2.1764884  )
        37           O   tau(  37) = (   0.0000000   0.0000000   2.4046730  )
        38           O   tau(  38) = (   0.5000000   0.0000000   2.4046730  )
        39           O   tau(  39) = (   0.0000000   0.4542364   2.4618441  )
        40           O   tau(  40) = (   0.5000000   0.4542364   2.4618428  )
        41           H   tau(  41) = (   0.0000000   0.1106537   0.8864984  )
        42           H   tau(  42) = (   0.0000000   0.1106537   2.4912919  )
        43           H   tau(  43) = (   0.5000000   0.1106537   0.8864984  )
        44           H   tau(  44) = (   0.5000000   0.1106537   2.4912919  )
        45           H   tau(  45) = (   0.0000000   0.7978191   0.8864984  )
        46           H   tau(  46) = (   0.0000000   0.7978191   2.4912919  )
        47           H   tau(  47) = (   0.5000000   0.7978191   0.8864984  )
        48           H   tau(  48) = (   0.5000000   0.7978191   2.4912919  )

     number of k points=     1  Marzari-Vanderbilt smearing, width (Ry)=  0.0300
                       cart. coord. in units 2pi/alat
        k(    1) = (   0.2500000   0.2751871   0.0000000), wk =   2.0000000

     Check: negative core charge=   -0.000001

     Initial potential from superposition of free atoms

     starting charge     367.9933, renormalised to     368.0000

     add environment contribution to local potential
     Polarization accuracy = 3.4E-12, # of iterations =  21

     negative rho (up, down):  2.887E-05 0.000E+00
     Starting wfcs are  240 randomized atomic wfcs
     Checking if some PAW data can be deallocated...

     Self-consistent Calculation

     iteration #  1     ecut=    50.00 Ry     beta= 0.70
     Davidson diagonalization with overlap
     ethr =  1.00E-02,  avg # of iterations =  4.0

     total energy              =   -3435.01543173 Ry
     estimated scf accuracy    <      10.28689885 Ry
     electrostatic embedding   =      -0.00167873 Ry
     cavitation energy         =       0.01893046 Ry
     PV energy                 =      -0.08619609 Ry
     correction to one-el term =     223.97448840 Ry

[...]

     negative rho (up, down):  3.639E-05 0.000E+00

[...]

     the potential shift due to the Gaussian-smeared nuclei is    -1.3500 ev

     End of self-consistent calculation

[...]
     atom   28 type  1   force =     0.00000000    0.00000000  -38.49305748
     atom   29 type  2   force =    -0.00001421    0.00000000 -165.13277126
     atom   30 type  2   force =     0.00001421   -0.00000000 -165.13277126
     atom   31 type  1   force =    -0.00000192    0.38537419  -63.41251329
     atom   32 type  1   force =     0.00000192    0.38537419  -63.41251329
     atom   33 type  2   force =    -0.00000000    0.00000000 -170.94729892
     atom   34 type  2   force =     0.00000000    0.00000000 -170.94710590
     atom   35 type  1   force =    -0.00000192   -0.38537419  -63.41251329
     atom   36 type  1   force =     0.00000192   -0.38537419  -63.41251329
     atom   37 type  1   force =    -0.00000000    0.00000000  -90.30445744
     atom   38 type  1   force =    -0.00000000   -0.00000000  -90.30445441
     atom   39 type  1   force =    -0.00000000    0.00000000  -97.73070609
     atom   40 type  1   force =     0.00000000    0.00000000  -97.73071071
     atom   41 type  3   force =     0.00000000   -2.15788175   16.85534385
     atom   42 type  3   force =    -0.00000000   -2.15788175  -16.85534385
     atom   43 type  3   force =     0.00000000   -2.15788248   16.85534308
     atom   44 type  3   force =    -0.00000000   -2.15788248  -16.85534308
     atom   45 type  3   force =     0.00000000    2.15788175   16.85534385
     atom   46 type  3   force =    -0.00000000    2.15788175  -16.85534385
     atom   47 type  3   force =     0.00000000    2.15788248   16.85534308
     atom   48 type  3   force =    -0.00000000    2.15788248  -16.85534308
     The core correction contribution to forces
     atom    1 type  1   force =     0.00000000    0.00000000   -0.00983139
     atom    2 type  1   force =     0.00000000   -0.00000000   -0.00983141
     atom    3 type  1   force =     0.00000000   -0.00000000    0.01313034
     atom    4 type  1   force =    -0.00000000   -0.00000000    0.01313035
     atom    5 type  2   force =     0.00000000    0.00000000    0.00000000
     atom    6 type  2   force =     0.00000000    0.00000000    0.00000000
     atom    7 type  1   force =     0.00000000    0.00017193    0.00042124
     atom    8 type  1   force =    -0.00000000    0.00017193    0.00042124
     atom    9 type  2   force =     0.00000000    0.00000000    0.00000000
     atom   10 type  2   force =     0.00000000    0.00000000    0.00000000
     atom   11 type  1   force =     0.00000000   -0.00017193    0.00042124
     atom   12 type  1   force =    -0.00000000   -0.00017193    0.00042124
     atom   13 type  1   force =     0.00000000    0.00000000    0.00233269
     atom   14 type  1   force =     0.00000000   -0.00000000    0.00233268
     atom   15 type  1   force =     0.00000000   -0.00000000   -0.00193174
     atom   16 type  1   force =    -0.00000000    0.00000000   -0.00193171
     atom   17 type  2   force =     0.00000000    0.00000000    0.00000000
     atom   18 type  2   force =     0.00000000    0.00000000    0.00000000
     atom   19 type  1   force =     0.00000001   -0.00029843   -0.00000199
     atom   20 type  1   force =    -0.00000001   -0.00029843   -0.00000199
     atom   21 type  2   force =     0.00000000    0.00000000    0.00000000
     atom   22 type  2   force =     0.00000000    0.00000000    0.00000000
     atom   23 type  1   force =     0.00000001    0.00029791   -0.00000199
     atom   24 type  1   force =    -0.00000001    0.00029791   -0.00000199
     atom   25 type  1   force =     0.00000000    0.00000000    0.00192956
     atom   26 type  1   force =    -0.00000000   -0.00000000    0.00192952
     atom   27 type  1   force =     0.00000000   -0.00000000   -0.00233466
     atom   28 type  1   force =    -0.00000000   -0.00000000   -0.00233465
     atom   29 type  2   force =     0.00000000    0.00000000    0.00000000
     atom   30 type  2   force =     0.00000000    0.00000000    0.00000000
     atom   31 type  1   force =     0.00000000    0.00017225   -0.00042293
     atom   32 type  1   force =    -0.00000000    0.00017225   -0.00042293
     atom   33 type  2   force =     0.00000000    0.00000000    0.00000000
     atom   34 type  2   force =     0.00000000    0.00000000    0.00000000
     atom   35 type  1   force =     0.00000000   -0.00017225   -0.00042293
     atom   36 type  1   force =    -0.00000000   -0.00017225   -0.00042293
     atom   37 type  1   force =     0.00000000    0.00000000   -0.01313445
     atom   38 type  1   force =     0.00000000    0.00000000   -0.01313446
     atom   39 type  1   force =    -0.00000000    0.00000000    0.00982905
     atom   40 type  1   force =    -0.00000000   -0.00000000    0.00982907
     atom   41 type  3   force =     0.00000000    0.00000000    0.00000000
     atom   42 type  3   force =     0.00000000    0.00000000    0.00000000
     atom   43 type  3   force =     0.00000000    0.00000000    0.00000000
     atom   44 type  3   force =     0.00000000    0.00000000    0.00000000
     atom   45 type  3   force =     0.00000000    0.00000000    0.00000000
     atom   46 type  3   force =     0.00000000    0.00000000    0.00000000
     atom   47 type  3   force =     0.00000000    0.00000000    0.00000000
     atom   48 type  3   force =     0.00000000    0.00000000    0.00000000
     The Hubbard contrib.    to forces
     atom    1 type  1   force =     0.00000000    0.00000000    0.00000000
     atom    2 type  1   force =     0.00000000    0.00000000    0.00000000
     atom    3 type  1   force =     0.00000000    0.00000000    0.00000000
     atom    4 type  1   force =     0.00000000    0.00000000    0.00000000
     atom    5 type  2   force =     0.00000000    0.00000000    0.00000000
     atom    6 type  2   force =     0.00000000    0.00000000    0.00000000
     atom    7 type  1   force =     0.00000000    0.00000000    0.00000000
     atom    8 type  1   force =     0.00000000    0.00000000    0.00000000
     atom    9 type  2   force =     0.00000000    0.00000000    0.00000000
     atom   10 type  2   force =     0.00000000    0.00000000    0.00000000
     atom   11 type  1   force =     0.00000000    0.00000000    0.00000000
     atom   12 type  1   force =     0.00000000    0.00000000    0.00000000
     atom   13 type  1   force =     0.00000000    0.00000000    0.00000000
     atom   14 type  1   force =     0.00000000    0.00000000    0.00000000
     atom   15 type  1   force =     0.00000000    0.00000000    0.00000000
     atom   16 type  1   force =     0.00000000    0.00000000    0.00000000
     atom   17 type  2   force =     0.00000000    0.00000000    0.00000000
     atom   18 type  2   force =     0.00000000    0.00000000    0.00000000
     atom   19 type  1   force =     0.00000000    0.00000000    0.00000000
     atom   20 type  1   force =     0.00000000    0.00000000    0.00000000
     atom   21 type  2   force =     0.00000000    0.00000000    0.00000000
     atom   22 type  2   force =     0.00000000    0.00000000    0.00000000
     atom   23 type  1   force =     0.00000000    0.00000000    0.00000000
     atom   24 type  1   force =     0.00000000    0.00000000    0.00000000
     atom   25 type  1   force =     0.00000000    0.00000000    0.00000000
     atom   26 type  1   force =     0.00000000    0.00000000    0.00000000
     atom   27 type  1   force =     0.00000000    0.00000000    0.00000000
     atom   28 type  1   force =     0.00000000    0.00000000    0.00000000
     atom   29 type  2   force =     0.00000000    0.00000000    0.00000000
     atom   30 type  2   force =     0.00000000    0.00000000    0.00000000
     atom   31 type  1   force =     0.00000000    0.00000000    0.00000000
     atom   32 type  1   force =     0.00000000    0.00000000    0.00000000
     atom   33 type  2   force =     0.00000000    0.00000000    0.00000000
     atom   34 type  2   force =     0.00000000    0.00000000    0.00000000
     atom   35 type  1   force =     0.00000000    0.00000000    0.00000000
     atom   36 type  1   force =     0.00000000    0.00000000    0.00000000
     atom   37 type  1   force =     0.00000000    0.00000000    0.00000000
     atom   38 type  1   force =     0.00000000    0.00000000    0.00000000
     atom   39 type  1   force =     0.00000000    0.00000000    0.00000000
     atom   40 type  1   force =     0.00000000    0.00000000    0.00000000
     atom   41 type  3   force =     0.00000000    0.00000000    0.00000000
     atom   42 type  3   force =     0.00000000    0.00000000    0.00000000
     atom   43 type  3   force =     0.00000000    0.00000000    0.00000000
     atom   44 type  3   force =     0.00000000    0.00000000    0.00000000
     atom   45 type  3   force =     0.00000000    0.00000000    0.00000000
     atom   46 type  3   force =     0.00000000    0.00000000    0.00000000
     atom   47 type  3   force =     0.00000000    0.00000000    0.00000000
     atom   48 type  3   force =     0.00000000    0.00000000    0.00000000
     The SCF correction term to forces
     atom    1 type  1   force =    -0.00000000    0.00000000    0.00000275
     atom    2 type  1   force =    -0.00000000    0.00000000    0.00000275
     atom    3 type  1   force =     0.00000000    0.00000000    0.00000165
     atom    4 type  1   force =     0.00000000    0.00000000    0.00000159
     atom    5 type  2   force =    -0.00000032   -0.00000000    0.00000375
     atom    6 type  2   force =     0.00000032   -0.00000000    0.00000375
     atom    7 type  1   force =    -0.00000007   -0.00000034    0.00000153
     atom    8 type  1   force =     0.00000007   -0.00000034    0.00000153
     atom    9 type  2   force =     0.00000000    0.00000000    0.00000661
     atom   10 type  2   force =    -0.00000000    0.00000000    0.00000617
     atom   11 type  1   force =    -0.00000007    0.00000034    0.00000153
     atom   12 type  1   force =     0.00000007    0.00000034    0.00000153
     atom   13 type  1   force =    -0.00000000   -0.00000000    0.00000165
     atom   14 type  1   force =     0.00000000   -0.00000000    0.00000076
     atom   15 type  1   force =    -0.00000000    0.00000000    0.00000106
     atom   16 type  1   force =     0.00000000    0.00000000    0.00000089
     atom   17 type  2   force =    -0.00000000   -0.00000000   -0.00000001
     atom   18 type  2   force =     0.00000000   -0.00000000   -0.00000000
     atom   19 type  1   force =    -0.00000086    0.00000010   -0.00000000
     atom   20 type  1   force =     0.00000086    0.00000010   -0.00000000
     atom   21 type  2   force =    -0.00000072    0.00000000   -0.00000000
     atom   22 type  2   force =     0.00000072    0.00000000   -0.00000000
     atom   23 type  1   force =    -0.00000086   -0.00000010   -0.00000000
     atom   24 type  1   force =     0.00000086   -0.00000010   -0.00000000
     atom   25 type  1   force =     0.00000000    0.00000000   -0.00000107
     atom   26 type  1   force =     0.00000000    0.00000000   -0.00000089
     atom   27 type  1   force =     0.00000000   -0.00000000   -0.00000165
     atom   28 type  1   force =     0.00000000   -0.00000000   -0.00000076
     atom   29 type  2   force =    -0.00000032   -0.00000000   -0.00000375
     atom   30 type  2   force =     0.00000032   -0.00000000   -0.00000375
     atom   31 type  1   force =    -0.00000007   -0.00000034   -0.00000153
     atom   32 type  1   force =     0.00000007   -0.00000034   -0.00000153
     atom   33 type  2   force =     0.00000000    0.00000000   -0.00000661
     atom   34 type  2   force =    -0.00000000    0.00000000   -0.00000616
     atom   35 type  1   force =    -0.00000007    0.00000034   -0.00000153
     atom   36 type  1   force =     0.00000007    0.00000034   -0.00000153
     atom   37 type  1   force =    -0.00000000   -0.00000000   -0.00000165
     atom   38 type  1   force =     0.00000000   -0.00000000   -0.00000159
     atom   39 type  1   force =    -0.00000000    0.00000000   -0.00000274
     atom   40 type  1   force =    -0.00000000    0.00000000   -0.00000275
     atom   41 type  3   force =     0.00000000   -0.00000017    0.00000036
     atom   42 type  3   force =    -0.00000000   -0.00000017   -0.00000036
     atom   43 type  3   force =    -0.00000000   -0.00000016    0.00000036
     atom   44 type  3   force =    -0.00000000   -0.00000016   -0.00000036
     atom   45 type  3   force =     0.00000000    0.00000017    0.00000036
     atom   46 type  3   force =    -0.00000000    0.00000017   -0.00000036
     atom   47 type  3   force =    -0.00000000    0.00000016    0.00000036
     atom   48 type  3   force =    -0.00000000    0.00000016   -0.00000036

     Total force =     0.000209     Total SCF correction =     0.000017
     Energy error            =      3.0E-07 Ry
     Gradient error          =      6.3E-05 Ry/Bohr

     bfgs converged in  24 scf cycles and  23 bfgs steps
     (criteria: energy <  1.0E-04 Ry, force <  1.0E-04 Ry/Bohr)

     End of BFGS Geometry Optimization

     Final energy             =   -3437.3937404139 Ry

     File /storage/home/mgm6007/ixd4/Maria/StrainJin_Files/RuO2-110-0-2345/RuO2-110-0-2345.bfgs deleted, as requested
Begin final coordinates

ATOMIC_POSITIONS (crystal)
O             0.0000000000        0.5000000000        0.2688595966
O             0.5000000000        0.5000000000        0.2688596966
O             0.0000000000        0.0000000000        0.2908592573
O             0.5000000000        0.0000000000        0.2908592160
Ru            0.2499999814        0.0000000000        0.3609362941
Ru            0.7500000186       -0.0000000000        0.3609362941
O             0.2500000431        0.3108379365        0.3550048825
O             0.7499999569        0.3108379365        0.3550048825
Ru            0.0000000000        0.5000000000        0.3502460510
Ru            0.5000000000        0.5000000000        0.3502461348
O             0.2500000431        0.6891620635        0.3550048825
O             0.7499999569        0.6891620635        0.3550048825
O             0.0000000000        0.0000000000        0.4126391843
O             0.5000000000        0.0000000000        0.4126391871
O             0.0000000000        0.5000000000        0.4440632888
O             0.5000000000        0.5000000000        0.4440636350
Ru            0.0000000000        0.0000000000        0.5000010000
Ru            0.5000000000        0.0000000000        0.5000010000
O             0.2499999671        0.1868898338        0.5000010000
O             0.7500000329        0.1868898338        0.5000010000
Ru            0.2499997992        0.5000000000        0.5000010000
Ru            0.7500002008        0.5000000000        0.5000010000
O             0.2499999671        0.8131111662        0.5000010000
O             0.7500000329        0.8131111662        0.5000010000
O             0.0000000000        0.5000000000        0.5559377112
O             0.5000000000        0.5000000000        0.5559373650
O             0.0000000000        0.0000000000        0.5873618157
O             0.5000000000        0.0000000000        0.5873618129
Ru            0.2499999814       -0.0000000000        0.6390647059
Ru            0.7500000186        0.0000000000        0.6390647059
O             0.2500000431        0.3108379365        0.6449961175
O             0.7499999569        0.3108379365        0.6449961175
Ru            0.0000000000        0.5000000000        0.6497549490
Ru            0.5000000000        0.5000000000        0.6497548652
O             0.2500000431        0.6891620635        0.6449961175
O             0.7499999569        0.6891620635        0.6449961175
O             0.0000000000        0.0000000000        0.7091427427
O             0.5000000000        0.0000000000        0.7091427840
O             0.0000000000        0.5000000000        0.7311414034
O             0.5000000000        0.5000000000        0.7311413034
H             0.0000000000        0.1372578138        0.2655132887
H             0.0000000000        0.1372578138        0.7344867113
H             0.5000000000        0.1372578123        0.2655132459
H             0.5000000000        0.1372578123        0.7344867541
H             0.0000000000        0.8627421862        0.2655132887
H            -0.0000000000        0.8627421862        0.7344867113
H             0.5000000000        0.8627421877        0.2655132459
H             0.5000000000        0.8627421877        0.7344867541
End final coordinates

     Writing all to output data dir /storage/home/mgm6007/ixd4/Maria/StrainJin_Files/RuO2-110-0-2345/RuO2-110-0-2345.save/

     General routines

     Parallel routines

     Environ routines

   This run was terminated on:  10:44:21  27Jul2023

   JOB DONE.