     Program PWSCF v.7.2 starts on 23Jul2023 at 14:19:13
        Git branch: heads/qe-7.2
        Last git commit: b4c5e8deeb7d1863e7553a87b45f8d22c21926a5
        Last git commit date: Mon Mar 27 16:12:09 2023 +0000
        Last git commit subject: Merge branch 'merge_fix_hubbard' into 'develop'

     Reading input from RuO2-110-0-24.in

     Current dimensions of program PWSCF are:
     Max number of different atomic species (ntypx) = 10
     Max number of k-points (npk) =  40000
     Max angular momentum in pseudopotentials (lmaxx) =  4

     Reading input from environ.in:
     * Environ restarting
     * setting up water environment
     * using electronic solvent mode
     * setting boundary derivatives method to SCCS default

     File /storage/home/mgm6007/ixd4/Maria/Strain2_Files/RuO2-110-0-24/RuO2-110-0-24.update deleted, as requested

     File /storage/home/mgm6007/ixd4/Maria/Strain2_Files/RuO2-110-0-24/RuO2-110-0-24.bfgs deleted, as requested
     file O.pbe-n-kjpaw_psl.0.1.UPF: wavefunction(s)  2P renormalized
     Message from routine setup:
     using ibrav=0 with symmetry is DISCOURAGED, use correct ibrav instead

     R & G space division:  proc/nbgrp/npool/nimage =      20
     Subspace diagonalization in iterative solution of the eigenvalue problem:
     one sub-group per band group will be used

     Using Slab Decomposition

     bravais-lattice index     =            0
     lattice parameter (alat)  =      12.2467  a.u.
     unit-cell volume          =    5883.2137 (a.u.)^3
     number of atoms/cell      =           44
     number of atomic types    =            3
     number of electrons       =       364.00
     number of Kohn-Sham states=          218
     kinetic-energy cutoff     =      50.0000  Ry
     charge density cutoff     =     500.0000  Ry
     scf convergence threshold =      1.0E-09
     mixing beta               =       0.7000
     number of iterations used =            8  local-TF  mixing
     energy convergence thresh.=      1.0E-04
     force convergence thresh. =      1.0E-04
     Exchange-correlation= PBE
                           (   1   4   3   4   0   0   0)
     nstep                     =          200

                                  Environ Setup Summary

          O. Andreussi, I. Dabo and N. Marzari, J. Chem. Phys. 136, 064102 (2012)

     in publications or presentations arising from this work.

     Parameters

     compensation onset threshold      =               0.1000E+00
     static permittivity               =                    78.30
     surface tension in input (dyn/cm) =                    47.90
     surface tension in internal units =               0.6153E-04
     external pressure in input (GPa)  =                    -0.36
     external pressure in inter. units =              -0.2447E-04

     Solvent Boundary

     solvent mode                      =               electronic
     derivatives method                =                    chain
     numerical core for derivatives    =                      fft
     switching function adopted        =                     SCCS
     density limit for vacuum region   =               0.5000E-02
     density limit for bulk solvent    =               0.1000E-03

     Electrostatic Setup

     electrostatic problem to solve    =              generalized
     numerical solver adopted          =                       cg
     type of auxiliary density adopted =                     none
     numerical core for poisson        =                      fft
     type of pbc corrections           =                parabolic
     numerical core for corrections    =                      1da

     celldm(1)=  12.246684  celldm(2)=   0.000000  celldm(3)=   0.000000
     celldm(4)=   0.000000  celldm(5)=   0.000000  celldm(6)=   0.000000

     crystal axes: (cart. coord. in units of alat)
               a(1) = (   1.000000   0.000000   0.000000 )
               a(2) = (   0.000000   0.937861   0.000000 )
               a(3) = (   0.000000   0.000000   3.415235 )

     reciprocal axes: (cart. coord. in units 2 pi/alat)
               b(1) = (  1.000000  0.000000  0.000000 )
               b(2) = (  0.000000  1.066256  0.000000 )
               b(3) = (  0.000000  0.000000  0.292806 )

     PseudoPot. # 1 for O  read from file:
     /gpfs/group/ixd4/default/Simon/pseudopotentials/materialscloud/SSSP_1.3.0_PBE_efficiency/O.pbe-n-kjpaw_psl.0.1.UPF
     MD5 check sum: 0234752ac141de4415c5fc33072bef88
     Pseudo is Projector augmented-wave + core cor, Zval =  6.0
     Generated using "atomic" code by A. Dal Corso  v.5.0.99 svn rev. 10869
     Shape of augmentation charge: BESSEL
     Using radial grid of 1095 points,  4 beta functions with:
                l(1) =   0
                l(2) =   0
                l(3) =   1
                l(4) =   1
     Q(r) pseudized with 0 coefficients

     PseudoPot. # 2 for Ru read from file:
     /gpfs/group/ixd4/default/Simon/pseudopotentials/materialscloud/SSSP_1.3.0_PBE_efficiency/Ru_ONCV_PBE-1.0.oncvpsp.upf
     MD5 check sum: be037bb81c227cfb9b1461a9f099f4bd
     Pseudo is Norm-conserving, Zval = 16.0
     Generated using ONCVPSP code by D. R. Hamann
     Using radial grid of 1458 points,  6 beta functions with:
                l(1) =   0
                l(2) =   0
                l(3) =   1
                l(4) =   1
                l(5) =   2
                l(6) =   2

     PseudoPot. # 3 for H  read from file:
     /gpfs/group/ixd4/default/Simon/pseudopotentials/materialscloud/SSSP_1.3.0_PBE_efficiency/H.pbe-rrkjus_psl.1.0.0.UPF
     MD5 check sum: f52b6d4d1c606e5624b1dc7b2218f220
     Pseudo is Ultrasoft, Zval =  1.0
     Generated using "atomic" code by A. Dal Corso  v.5.1
     Using radial grid of  929 points,  2 beta functions with:
                l(1) =   0
                l(2) =   0
     Q(r) pseudized with 0 coefficients

     atomic species   valence    mass     pseudopotential
        O              6.00    15.99940     O ( 1.00)
        Ru            16.00   101.07000     Ru( 1.00)
        H              1.00     1.00794     H ( 1.00)

      8 Sym. Ops., with inversion, found

   Cartesian axes

     site n.     atom                  positions (alat units)
         1           O   tau(   1) = (   0.0000000   0.4689304   0.9362724  )
         2           O   tau(   2) = (   0.5000000   0.4689304   0.9322441  )
         3           O   tau(   3) = (   0.0000000   0.0000000   0.9898251  )
         4           O   tau(   4) = (   0.5000000   0.0000000   1.0501308  )
         5           Ru  tau(   5) = (   0.2614563   0.0000000   1.2234188  )
         6           Ru  tau(   6) = (   0.7385437   0.0000000   1.2234188  )
         7           O   tau(   7) = (   0.2500655   0.2911917   1.2244457  )
         8           O   tau(   8) = (   0.7499345   0.2911917   1.2244457  )
         9           Ru  tau(   9) = (   0.0000000   0.4689304   1.2079522  )
        10           Ru  tau(  10) = (   0.5000000   0.4689304   1.1984911  )
        11           O   tau(  11) = (   0.2500655   0.6466691   1.2244457  )
        12           O   tau(  12) = (   0.7499345   0.6466691   1.2244457  )
        13           O   tau(  13) = (   0.0000000   0.0000000   1.4041292  )
        14           O   tau(  14) = (   0.5000000   0.0000000   1.4080405  )
        15           O   tau(  15) = (   0.0000000   0.4689304   1.5198920  )
        16           O   tau(  16) = (   0.5000000   0.4689304   1.5192679  )
        17           Ru  tau(  17) = (   0.0000000   0.0000000   1.7076210  )
        18           Ru  tau(  18) = (   0.5000000   0.0000000   1.7076210  )
        19           O   tau(  19) = (   0.2487255   0.1763263   1.7076210  )
        20           O   tau(  20) = (   0.7512745   0.1763263   1.7076210  )
        21           Ru  tau(  21) = (   0.2513830   0.4689304   1.7076210  )
        22           Ru  tau(  22) = (   0.7486170   0.4689304   1.7076210  )
        23           O   tau(  23) = (   0.2487255   0.7615355   1.7076210  )
        24           O   tau(  24) = (   0.7512745   0.7615355   1.7076210  )
        25           O   tau(  25) = (   0.0000000   0.4689304   1.8953466  )
        26           O   tau(  26) = (   0.5000000   0.4689304   1.8959707  )
        27           O   tau(  27) = (   0.0000000   0.0000000   2.0111095  )
        28           O   tau(  28) = (   0.5000000   0.0000000   2.0071981  )
        29           Ru  tau(  29) = (   0.2614563   0.0000000   2.1918198  )
        30           Ru  tau(  30) = (   0.7385437   0.0000000   2.1918198  )
        31           O   tau(  31) = (   0.2500655   0.2911917   2.1907930  )
        32           O   tau(  32) = (   0.7499345   0.2911917   2.1907930  )
        33           Ru  tau(  33) = (   0.0000000   0.4689304   2.2072864  )
        34           Ru  tau(  34) = (   0.5000000   0.4689304   2.2167475  )
        35           O   tau(  35) = (   0.2500655   0.6466691   2.1907930  )
        36           O   tau(  36) = (   0.7499345   0.6466691   2.1907930  )
        37           O   tau(  37) = (   0.0000000   0.0000000   2.4254169  )
        38           O   tau(  38) = (   0.5000000   0.0000000   2.3651112  )
        39           O   tau(  39) = (   0.0000000   0.4689304   2.4789662  )
        40           O   tau(  40) = (   0.5000000   0.4689304   2.4829945  )
        41           H   tau(  41) = (   0.0000000   0.1208629   0.8968759  )
        42           H   tau(  42) = (   0.0000000   0.1208629   2.5183594  )
        43           H   tau(  43) = (   0.0000000   0.8169980   0.8968759  )
        44           H   tau(  44) = (   0.0000000   0.8169980   2.5183594  )

     number of k points=     1  Marzari-Vanderbilt smearing, width (Ry)=  0.0300
                       cart. coord. in units 2pi/alat
        k(    1) = (   0.2500000   0.2665641   0.0000000), wk =   2.0000000

     Check: negative core charge=   -0.000001

     Initial potential from superposition of free atoms

     starting charge     363.9933, renormalised to     364.0000

     add environment contribution to local potential
     Polarization accuracy = 1.7E-12, # of iterations =  23

     negative rho (up, down):  3.595E-05 0.000E+00
     Starting wfcs are  236 randomized atomic wfcs
     Checking if some PAW data can be deallocated...

     Self-consistent Calculation

     iteration #  1     ecut=    50.00 Ry     beta= 0.70
     Davidson diagonalization with overlap
     ethr =  1.00E-02,  avg # of iterations =  2.0

     total energy              =   -3430.06476371 Ry
     estimated scf accuracy    <      10.40039451 Ry
     electrostatic embedding   =      -0.00164455 Ry
     cavitation energy         =       0.01966450 Ry
     PV energy                 =      -0.08371412 Ry
     correction to one-el term =     215.93176388 Ry

[...]

     negative rho (up, down):  7.595E-07 0.000E+00

[...]

     iteration # 20     ecut=    50.00 Ry     beta= 0.70
     Davidson diagonalization with overlap
     c_bands:  1 eigenvalues not converged
     ethr =  3.24E-08,  avg # of iterations = 20.0

[...]

     the potential shift due to the Gaussian-smeared nuclei is    -1.3223 ev

     End of self-consistent calculation

[...]
     atom    8 type  1   force =    -0.75101775    0.88531853   62.15942241
     atom    9 type  2   force =    -0.00000000    0.00000000  169.47925381
     atom   10 type  2   force =     0.00000000    0.00000000  173.17995891
     atom   11 type  1   force =     0.75101775   -0.88531853   62.15942241
     atom   12 type  1   force =    -0.75101775   -0.88531853   62.15942241
     atom   13 type  1   force =    -0.00000000    0.00000000   39.69600180
     atom   14 type  1   force =     0.00000000    0.00000000   36.62672980
     atom   15 type  1   force =     0.00000000    0.00000000   26.29446646
     atom   16 type  1   force =     0.00000000    0.00000000   27.17624731
     atom   17 type  2   force =    -0.00000000    0.00000000   -0.00588628
     atom   18 type  2   force =     0.00000000    0.00000000   -0.00580767
     atom   19 type  1   force =     0.24195980   -1.30119653   -0.00245106
     atom   20 type  1   force =    -0.24195980   -1.30119653   -0.00245106
     atom   21 type  2   force =     0.45972526    0.00000000   -0.00603530
     atom   22 type  2   force =    -0.45972526    0.00000000   -0.00603530
     atom   23 type  1   force =     0.24195853    1.30083849   -0.00245106
     atom   24 type  1   force =    -0.24195853    1.30083849   -0.00245106
     atom   25 type  1   force =     0.00000000    0.00000000  -26.29625195
     atom   26 type  1   force =     0.00000000    0.00000000  -27.17804600
     atom   27 type  1   force =    -0.00000000    0.00000000  -39.69780935
     atom   28 type  1   force =     0.00000000    0.00000000  -36.62846149
     atom   29 type  2   force =     6.39669331   -0.00000000 -170.23933302
     atom   30 type  2   force =    -6.39669331    0.00000000 -170.23933302
     atom   31 type  1   force =     0.75102713    0.88535496  -62.16186002
     atom   32 type  1   force =    -0.75102713    0.88535496  -62.16186002
     atom   33 type  2   force =    -0.00000000    0.00000000 -169.48500154
     atom   34 type  2   force =    -0.00000000    0.00000000 -173.18573739
     atom   35 type  1   force =     0.75102713   -0.88535496  -62.16186002
     atom   36 type  1   force =    -0.75102713   -0.88535496  -62.16186002
     atom   37 type  1   force =    -0.00000000    0.00000000  -90.10868807
     atom   38 type  1   force =     0.00000000   -0.00000000  -93.64512328
     atom   39 type  1   force =     0.00000000    0.00000000  -98.35496000
     atom   40 type  1   force =     0.00000000    0.00000000  -99.45101674
     atom   41 type  3   force =     0.00000000   -2.22681049   16.93342828
     atom   42 type  3   force =    -0.00000000   -2.22681049  -16.93342828
     atom   43 type  3   force =    -0.00000000    2.22681049   16.93342828
     atom   44 type  3   force =    -0.00000000    2.22681049  -16.93342828
     The core correction contribution to forces
     atom    1 type  1   force =    -0.00000000   -0.00000000   -0.01057376
     atom    2 type  1   force =    -0.00000000   -0.00000000   -0.01070725
     atom    3 type  1   force =     0.00000000    0.00000000    0.01339283
     atom    4 type  1   force =     0.00000000    0.00000000   -0.01161498
     atom    5 type  2   force =     0.00000000    0.00000000    0.00000000
     atom    6 type  2   force =     0.00000000    0.00000000    0.00000000
     atom    7 type  1   force =    -0.00017625   -0.00039952    0.00122465
     atom    8 type  1   force =     0.00017625   -0.00039952    0.00122465
     atom    9 type  2   force =     0.00000000    0.00000000    0.00000000
     atom   10 type  2   force =     0.00000000    0.00000000    0.00000000
     atom   11 type  1   force =    -0.00017625    0.00039952    0.00122465
     atom   12 type  1   force =     0.00017625    0.00039952    0.00122465
     atom   13 type  1   force =     0.00000000    0.00000000   -0.00115672
     atom   14 type  1   force =     0.00000000    0.00000000    0.00238315
     atom   15 type  1   force =     0.00000000    0.00000000   -0.00177727
     atom   16 type  1   force =    -0.00000000    0.00000000   -0.00278290
     atom   17 type  2   force =     0.00000000    0.00000000    0.00000000
     atom   18 type  2   force =     0.00000000    0.00000000    0.00000000
     atom   19 type  1   force =    -0.00021329   -0.00011894   -0.00000200
     atom   20 type  1   force =     0.00021329   -0.00011894   -0.00000200
     atom   21 type  2   force =     0.00000000    0.00000000    0.00000000
     atom   22 type  2   force =     0.00000000    0.00000000    0.00000000
     atom   23 type  1   force =    -0.00021330    0.00011837   -0.00000200
     atom   24 type  1   force =     0.00021330    0.00011837   -0.00000200
     atom   25 type  1   force =     0.00000000   -0.00000000    0.00177520
     atom   26 type  1   force =    -0.00000000   -0.00000000    0.00278079
     atom   27 type  1   force =     0.00000000   -0.00000000    0.00115450
     atom   28 type  1   force =     0.00000000   -0.00000000   -0.00238545
     atom   29 type  2   force =     0.00000000    0.00000000    0.00000000
     atom   30 type  2   force =     0.00000000    0.00000000    0.00000000
     atom   31 type  1   force =    -0.00017617   -0.00039943   -0.00122613
     atom   32 type  1   force =     0.00017617   -0.00039943   -0.00122613
     atom   33 type  2   force =     0.00000000    0.00000000    0.00000000
     atom   34 type  2   force =     0.00000000    0.00000000    0.00000000
     atom   35 type  1   force =    -0.00017617    0.00039943   -0.00122613
     atom   36 type  1   force =     0.00017617    0.00039943   -0.00122613
     atom   37 type  1   force =    -0.00000000    0.00000000   -0.01339656
     atom   38 type  1   force =    -0.00000000    0.00000000    0.01161123
     atom   39 type  1   force =    -0.00000000    0.00000000    0.01057174
     atom   40 type  1   force =     0.00000000   -0.00000000    0.01070536
     atom   41 type  3   force =     0.00000000    0.00000000    0.00000000
     atom   42 type  3   force =     0.00000000    0.00000000    0.00000000
     atom   43 type  3   force =     0.00000000    0.00000000    0.00000000
     atom   44 type  3   force =     0.00000000    0.00000000    0.00000000
     The Hubbard contrib.    to forces
     atom    1 type  1   force =     0.00000000    0.00000000    0.00000000
     atom    2 type  1   force =     0.00000000    0.00000000    0.00000000
     atom    3 type  1   force =     0.00000000    0.00000000    0.00000000
     atom    4 type  1   force =     0.00000000    0.00000000    0.00000000
     atom    5 type  2   force =     0.00000000    0.00000000    0.00000000
     atom    6 type  2   force =     0.00000000    0.00000000    0.00000000
     atom    7 type  1   force =     0.00000000    0.00000000    0.00000000
     atom    8 type  1   force =     0.00000000    0.00000000    0.00000000
     atom    9 type  2   force =     0.00000000    0.00000000    0.00000000
     atom   10 type  2   force =     0.00000000    0.00000000    0.00000000
     atom   11 type  1   force =     0.00000000    0.00000000    0.00000000
     atom   12 type  1   force =     0.00000000    0.00000000    0.00000000
     atom   13 type  1   force =     0.00000000    0.00000000    0.00000000
     atom   14 type  1   force =     0.00000000    0.00000000    0.00000000
     atom   15 type  1   force =     0.00000000    0.00000000    0.00000000
     atom   16 type  1   force =     0.00000000    0.00000000    0.00000000
     atom   17 type  2   force =     0.00000000    0.00000000    0.00000000
     atom   18 type  2   force =     0.00000000    0.00000000    0.00000000
     atom   19 type  1   force =     0.00000000    0.00000000    0.00000000
     atom   20 type  1   force =     0.00000000    0.00000000    0.00000000
     atom   21 type  2   force =     0.00000000    0.00000000    0.00000000
     atom   22 type  2   force =     0.00000000    0.00000000    0.00000000
     atom   23 type  1   force =     0.00000000    0.00000000    0.00000000
     atom   24 type  1   force =     0.00000000    0.00000000    0.00000000
     atom   25 type  1   force =     0.00000000    0.00000000    0.00000000
     atom   26 type  1   force =     0.00000000    0.00000000    0.00000000
     atom   27 type  1   force =     0.00000000    0.00000000    0.00000000
     atom   28 type  1   force =     0.00000000    0.00000000    0.00000000
     atom   29 type  2   force =     0.00000000    0.00000000    0.00000000
     atom   30 type  2   force =     0.00000000    0.00000000    0.00000000
     atom   31 type  1   force =     0.00000000    0.00000000    0.00000000
     atom   32 type  1   force =     0.00000000    0.00000000    0.00000000
     atom   33 type  2   force =     0.00000000    0.00000000    0.00000000
     atom   34 type  2   force =     0.00000000    0.00000000    0.00000000
     atom   35 type  1   force =     0.00000000    0.00000000    0.00000000
     atom   36 type  1   force =     0.00000000    0.00000000    0.00000000
     atom   37 type  1   force =     0.00000000    0.00000000    0.00000000
     atom   38 type  1   force =     0.00000000    0.00000000    0.00000000
     atom   39 type  1   force =     0.00000000    0.00000000    0.00000000
     atom   40 type  1   force =     0.00000000    0.00000000    0.00000000
     atom   41 type  3   force =     0.00000000    0.00000000    0.00000000
     atom   42 type  3   force =     0.00000000    0.00000000    0.00000000
     atom   43 type  3   force =     0.00000000    0.00000000    0.00000000
     atom   44 type  3   force =     0.00000000    0.00000000    0.00000000
     The SCF correction term to forces
     atom    1 type  1   force =     0.00000000    0.00000000    0.00000124
     atom    2 type  1   force =    -0.00000000    0.00000000    0.00000145
     atom    3 type  1   force =     0.00000000    0.00000000    0.00000179
     atom    4 type  1   force =    -0.00000000   -0.00000000    0.00000148
     atom    5 type  2   force =     0.00000109   -0.00000000    0.00000369
     atom    6 type  2   force =    -0.00000109   -0.00000000    0.00000369
     atom    7 type  1   force =     0.00000103   -0.00000045    0.00000154
     atom    8 type  1   force =    -0.00000103   -0.00000045    0.00000154
     atom    9 type  2   force =    -0.00000000    0.00000000    0.00000585
     atom   10 type  2   force =    -0.00000000    0.00000000    0.00000355
     atom   11 type  1   force =     0.00000103    0.00000045    0.00000154
     atom   12 type  1   force =    -0.00000103    0.00000045    0.00000154
     atom   13 type  1   force =    -0.00000000   -0.00000000    0.00000133
     atom   14 type  1   force =    -0.00000000   -0.00000000    0.00000089
     atom   15 type  1   force =    -0.00000000    0.00000000    0.00000168
     atom   16 type  1   force =     0.00000000    0.00000000    0.00000062
     atom   17 type  2   force =     0.00000000   -0.00000000    0.00000003
     atom   18 type  2   force =     0.00000000   -0.00000000    0.00000002
     atom   19 type  1   force =     0.00000001    0.00000004    0.00000001
     atom   20 type  1   force =    -0.00000001    0.00000004    0.00000001
     atom   21 type  2   force =     0.00000005    0.00000000    0.00000003
     atom   22 type  2   force =    -0.00000005    0.00000000    0.00000003
     atom   23 type  1   force =     0.00000001   -0.00000004    0.00000001
     atom   24 type  1   force =    -0.00000001   -0.00000004    0.00000001
     atom   25 type  1   force =    -0.00000000    0.00000000   -0.00000166
     atom   26 type  1   force =     0.00000000    0.00000000   -0.00000061
     atom   27 type  1   force =     0.00000000   -0.00000000   -0.00000132
     atom   28 type  1   force =    -0.00000000   -0.00000000   -0.00000088
     atom   29 type  2   force =     0.00000108   -0.00000000   -0.00000368
     atom   30 type  2   force =    -0.00000108   -0.00000000   -0.00000368
     atom   31 type  1   force =     0.00000103   -0.00000044   -0.00000154
     atom   32 type  1   force =    -0.00000103   -0.00000044   -0.00000154
     atom   33 type  2   force =     0.00000000    0.00000000   -0.00000585
     atom   34 type  2   force =    -0.00000000    0.00000000   -0.00000354
     atom   35 type  1   force =     0.00000103    0.00000044   -0.00000154
     atom   36 type  1   force =    -0.00000103    0.00000044   -0.00000154
     atom   37 type  1   force =     0.00000000   -0.00000000   -0.00000180
     atom   38 type  1   force =     0.00000000    0.00000000   -0.00000148
     atom   39 type  1   force =     0.00000000   -0.00000000   -0.00000125
     atom   40 type  1   force =    -0.00000000   -0.00000000   -0.00000146
     atom   41 type  3   force =     0.00000000   -0.00000010    0.00000021
     atom   42 type  3   force =     0.00000000   -0.00000010   -0.00000021
     atom   43 type  3   force =     0.00000000    0.00000010    0.00000021
     atom   44 type  3   force =     0.00000000    0.00000010   -0.00000021

     Total force =     0.000243     Total SCF correction =     0.000015
     Energy error            =      3.5E-07 Ry
     Gradient error          =      7.4E-05 Ry/Bohr

     bfgs converged in  17 scf cycles and  16 bfgs steps
     (criteria: energy <  1.0E-04 Ry, force <  1.0E-04 Ry/Bohr)

     End of BFGS Geometry Optimization

     Final energy             =   -3432.6292400481 Ry

     File /storage/home/mgm6007/ixd4/Maria/Strain2_Files/RuO2-110-0-24/RuO2-110-0-24.bfgs deleted, as requested
Begin final coordinates

ATOMIC_POSITIONS (crystal)
O             0.0000000000        0.5000000000        0.2741827726
O             0.5000000000        0.5000000000        0.2725955393
O             0.0000000000        0.0000000000        0.2904664440
O             0.5000000000        0.0000000000        0.3075959251
Ru            0.2615422000        0.0000000000        0.3584121910
Ru            0.7384578000       -0.0000000000        0.3584121910
O             0.2501985371        0.3105368906        0.3585365899
O             0.7498014629        0.3105368906        0.3585365899
Ru            0.0000000000        0.5000000000        0.3537599972
Ru            0.5000000000        0.5000000000        0.3505751406
O             0.2501985371        0.6894631094        0.3585365899
O             0.7498014629        0.6894631094        0.3585365899
O             0.0000000000        0.0000000000        0.4111953135
O             0.5000000000        0.0000000000        0.4123550035
O             0.0000000000        0.5000000000        0.4451876808
O             0.5000000000        0.5000000000        0.4445990495
Ru            0.0000000000        0.0000000000        0.5000010000
Ru            0.5000000000        0.0000000000        0.5000010000
O             0.2489710729        0.1879936841        0.5000010000
O             0.7510289271        0.1879936841        0.5000010000
Ru            0.2518346264        0.5000000000        0.5000010000
Ru            0.7481653736        0.5000000000        0.5000010000
O             0.2489710729        0.8120073159        0.5000010000
O             0.7510289271        0.8120073159        0.5000010000
O             0.0000000000        0.5000000000        0.5548133192
O             0.5000000000        0.5000000000        0.5554019505
O             0.0000000000        0.0000000000        0.5888056865
O             0.5000000000        0.0000000000        0.5876459965
Ru            0.2615422000       -0.0000000000        0.6415888090
Ru            0.7384578000        0.0000000000        0.6415888090
O             0.2501985371        0.3105368906        0.6414644101
O             0.7498014629        0.3105368906        0.6414644101
Ru            0.0000000000        0.5000000000        0.6462410028
Ru            0.5000000000        0.5000000000        0.6494258594
O             0.2501985371        0.6894631094        0.6414644101
O             0.7498014629        0.6894631094        0.6414644101
O             0.0000000000        0.0000000000        0.7095355560
O             0.5000000000        0.0000000000        0.6924060749
O             0.0000000000        0.5000000000        0.7258182274
O             0.5000000000        0.5000000000        0.7274054607
H             0.0000000000        0.1292020215        0.2633630671
H             0.0000000000        0.1292020215        0.7366369329
H             0.0000000000        0.8707979785        0.2633630671
H            -0.0000000000        0.8707979785        0.7366369329
End final coordinates

     Writing all to output data dir /storage/home/mgm6007/ixd4/Maria/Strain2_Files/RuO2-110-0-24/RuO2-110-0-24.save/

     General routines

     Parallel routines

     Environ routines

   This run was terminated on:  20: 4:19  24Jul2023

   JOB DONE.