     Program PWSCF v.7.2 starts on 18Jul2023 at 16:12:34
        Git branch: heads/qe-7.2
        Last git commit: b4c5e8deeb7d1863e7553a87b45f8d22c21926a5
        Last git commit date: Mon Mar 27 16:12:09 2023 +0000
        Last git commit subject: Merge branch 'merge_fix_hubbard' into 'develop'

     Reading input from RuO2-110-0-0.in

     Current dimensions of program PWSCF are:
     Max number of different atomic species (ntypx) = 10
     Max number of k-points (npk) =  40000
     Max angular momentum in pseudopotentials (lmaxx) =  4

     Reading input from environ.in:
     * Environ restarting
     * setting up water environment
     * using electronic solvent mode
     * setting boundary derivatives method to SCCS default

     file O.pbe-n-kjpaw_psl.0.1.UPF: wavefunction(s)  2P renormalized
     Message from routine setup:
     using ibrav=0 with symmetry is DISCOURAGED, use correct ibrav instead

     R & G space division:  proc/nbgrp/npool/nimage =      20
     Subspace diagonalization in iterative solution of the eigenvalue problem:
     one sub-group per band group will be used

     Using Slab Decomposition

     bravais-lattice index     =            0
     lattice parameter (alat)  =      12.1041  a.u.
     unit-cell volume          =    5954.5483 (a.u.)^3
     number of atoms/cell      =           42
     number of atomic types    =            3
     number of electrons       =       362.00
     number of Kohn-Sham states=          217
     kinetic-energy cutoff     =      50.0000  Ry
     charge density cutoff     =     500.0000  Ry
     scf convergence threshold =      1.0E-09
     mixing beta               =       0.7000
     number of iterations used =            8  local-TF  mixing
     energy convergence thresh.=      1.0E-04
     force convergence thresh. =      1.0E-04
     Exchange-correlation= PBE
                           (   1   4   3   4   0   0   0)
     nstep                     =          200

                                  Environ Setup Summary

          O. Andreussi, I. Dabo and N. Marzari, J. Chem. Phys. 136, 064102 (2012)

     in publications or presentations arising from this work.

     Parameters

     compensation onset threshold      =               0.1000E+00
     static permittivity               =                    78.30
     surface tension in input (dyn/cm) =                    47.90
     surface tension in internal units =               0.6153E-04
     external pressure in input (GPa)  =                    -0.36
     external pressure in inter. units =              -0.2447E-04

     Solvent Boundary

     solvent mode                      =               electronic
     derivatives method                =                    chain
     numerical core for derivatives    =                      fft
     switching function adopted        =                     SCCS
     density limit for vacuum region   =               0.5000E-02
     density limit for bulk solvent    =               0.1000E-03

     Electrostatic Setup

     electrostatic problem to solve    =              generalized
     numerical solver adopted          =                       cg
     type of auxiliary density adopted =                     none
     numerical core for poisson        =                      fft
     type of pbc corrections           =                parabolic
     numerical core for corrections    =                      1da

     celldm(1)=  12.104053  celldm(2)=   0.000000  celldm(3)=   0.000000
     celldm(4)=   0.000000  celldm(5)=   0.000000  celldm(6)=   0.000000

     crystal axes: (cart. coord. in units of alat)
               a(1) = (   1.000000   0.000000   0.000000 )
               a(2) = (   0.000000   0.971735   0.000000 )
               a(3) = (   0.000000   0.000000   3.455479 )

     reciprocal axes: (cart. coord. in units 2 pi/alat)
               b(1) = (  1.000000  0.000000  0.000000 )
               b(2) = (  0.000000  1.029087  0.000000 )
               b(3) = (  0.000000  0.000000  0.289395 )

     PseudoPot. # 1 for O  read from file:
     /gpfs/group/ixd4/default/Simon/pseudopotentials/materialscloud/SSSP_1.3.0_PBE_efficiency/O.pbe-n-kjpaw_psl.0.1.UPF
     MD5 check sum: 0234752ac141de4415c5fc33072bef88
     Pseudo is Projector augmented-wave + core cor, Zval =  6.0
     Generated using "atomic" code by A. Dal Corso  v.5.0.99 svn rev. 10869
     Shape of augmentation charge: BESSEL
     Using radial grid of 1095 points,  4 beta functions with:
                l(1) =   0
                l(2) =   0
                l(3) =   1
                l(4) =   1
     Q(r) pseudized with 0 coefficients

     PseudoPot. # 2 for Ru read from file:
     /gpfs/group/ixd4/default/Simon/pseudopotentials/materialscloud/SSSP_1.3.0_PBE_efficiency/Ru_ONCV_PBE-1.0.oncvpsp.upf
     MD5 check sum: be037bb81c227cfb9b1461a9f099f4bd
     Pseudo is Norm-conserving, Zval = 16.0
     Generated using ONCVPSP code by D. R. Hamann
     Using radial grid of 1458 points,  6 beta functions with:
                l(1) =   0
                l(2) =   0
                l(3) =   1
                l(4) =   1
                l(5) =   2
                l(6) =   2

     PseudoPot. # 3 for H  read from file:
     /gpfs/group/ixd4/default/Simon/pseudopotentials/materialscloud/SSSP_1.3.0_PBE_efficiency/H.pbe-rrkjus_psl.1.0.0.UPF
     MD5 check sum: f52b6d4d1c606e5624b1dc7b2218f220
     Pseudo is Ultrasoft, Zval =  1.0
     Generated using "atomic" code by A. Dal Corso  v.5.1
     Using radial grid of  929 points,  2 beta functions with:
                l(1) =   0
                l(2) =   0
     Q(r) pseudized with 0 coefficients

     atomic species   valence    mass     pseudopotential
        O              6.00    15.99940     O ( 1.00)
        Ru            16.00   101.07000     Ru( 1.00)
        H              1.00     1.00794     H ( 1.00)

      4 Sym. Ops. (no inversion) found

   Cartesian axes

     site n.     atom                  positions (alat units)
         1           O   tau(   1) = (  -0.0077095   0.4858677   0.9430508  )
         2           O   tau(   2) = (   0.5006017   0.4858677   0.9453416  )
         3           O   tau(   3) = (  -0.0005764   0.0000000   1.0636789  )
         4           O   tau(   4) = (   0.4997062   0.0000000   1.0631784  )
         5           Ru  tau(   5) = (   0.2496083   0.0000000   1.2258479  )
         6           Ru  tau(   6) = (   0.7493724   0.0000000   1.2267802  )
         7           O   tau(   7) = (   0.2469728   0.2994328   1.2378711  )
         8           O   tau(   8) = (   0.7498513   0.2987347   1.2382670  )
         9           Ru  tau(   9) = (  -0.0036656   0.4858677   1.2385471  )
        10           Ru  tau(  10) = (   0.4970576   0.4858677   1.2109801  )
        11           O   tau(  11) = (   0.2469728   0.6723026   1.2378711  )
        12           O   tau(  12) = (   0.7498513   0.6730006   1.2382670  )
        13           O   tau(  13) = (   0.0011599   0.0000000   1.4260504  )
        14           O   tau(  14) = (   0.4988522   0.0000000   1.4257404  )
        15           O   tau(  15) = (   0.0041895   0.4858677   1.5422025  )
        16           O   tau(  16) = (   0.5039344   0.4858677   1.5250683  )
        17           Ru  tau(  17) = (   0.0027107   0.0000000   1.7277432  )
        18           Ru  tau(  18) = (   0.4990717   0.0000000   1.7277432  )
        19           O   tau(  19) = (   0.2530546   0.1903228   1.7277432  )
        20           O   tau(  20) = (   0.7496782   0.1860557   1.7277432  )
        21           Ru  tau(  21) = (   0.2580963   0.4858677   1.7277432  )
        22           Ru  tau(  22) = (   0.7442286   0.4858677   1.7277432  )
        23           O   tau(  23) = (   0.2530546   0.7814135   1.7277432  )
        24           O   tau(  24) = (   0.7496782   0.7856806   1.7277432  )
        25           O   tau(  25) = (   0.0041895   0.4858677   1.9132805  )
        26           O   tau(  26) = (   0.5039344   0.4858677   1.9304146  )
        27           O   tau(  27) = (   0.0011599   0.0000000   2.0294326  )
        28           O   tau(  28) = (   0.4988522   0.0000000   2.0297426  )
        29           Ru  tau(  29) = (   0.2496083   0.0000000   2.2296351  )
        30           Ru  tau(  30) = (   0.7493724   0.0000000   2.2287028  )
        31           O   tau(  31) = (   0.2469728   0.2994328   2.2176119  )
        32           O   tau(  32) = (   0.7498513   0.2987347   2.2172160  )
        33           Ru  tau(  33) = (  -0.0036656   0.4858677   2.2169359  )
        34           Ru  tau(  34) = (   0.4970576   0.4858677   2.2445028  )
        35           O   tau(  35) = (   0.2469728   0.6723026   2.2176119  )
        36           O   tau(  36) = (   0.7498513   0.6730006   2.2172160  )
        37           O   tau(  37) = (  -0.0005764   0.0000000   2.3918075  )
        38           O   tau(  38) = (   0.4997062   0.0000000   2.3923080  )
        39           O   tau(  39) = (  -0.0077095   0.4858677   2.5124322  )
        40           O   tau(  40) = (   0.5006017   0.4858677   2.5101414  )
        41           H   tau(  41) = (   0.1266693   0.4858677   0.8684780  )
        42           H   tau(  42) = (   0.1266693   0.4858677   2.5870015  )

     number of k points=     1  Marzari-Vanderbilt smearing, width (Ry)=  0.0300
                       cart. coord. in units 2pi/alat
        k(    1) = (   0.2500000   0.2572717   0.0000000), wk =   2.0000000

     Check: negative core charge=   -0.000001

     Initial potential from superposition of free atoms

     starting charge     361.9933, renormalised to     362.0000

     add environment contribution to local potential
     Polarization accuracy = 3.9E-12, # of iterations =  24

     negative rho (up, down):  3.731E-05 0.000E+00
     Starting wfcs are  234 randomized atomic wfcs
     Checking if some PAW data can be deallocated...

     Self-consistent Calculation

     iteration #  1     ecut=    50.00 Ry     beta= 0.70
     Davidson diagonalization with overlap
     ethr =  1.00E-02,  avg # of iterations =  2.0

     total energy              =   -3427.53975703 Ry
     estimated scf accuracy    <      10.61255182 Ry
     electrostatic embedding   =      -0.00173322 Ry
     cavitation energy         =       0.02000415 Ry
     PV energy                 =      -0.08294595 Ry
     correction to one-el term =     210.19918567 Ry

[...]

     negative rho (up, down):  5.966E-05 0.000E+00

[...]

     the potential shift due to the Gaussian-smeared nuclei is    -1.2993 ev

     End of self-consistent calculation

          k = 0.2500 0.2573 0.0000 ( 35510 PWs)   bands (ev):

   -79.2737 -79.2603 -78.9005 -78.8877 -78.8854 -78.8726 -78.6037 -78.5908
   -78.2859 -78.2677 -78.2614 -78.2391 -49.8476 -49.8343 -49.1217 -49.1083
   -49.0041 -48.9925 -48.9912 -48.9796 -48.9576 -48.9448 -48.9220 -48.9091
   -48.8769 -48.8635 -48.8503 -48.8375 -48.7778 -48.7648 -48.7515 -48.7386
   -48.5924 -48.5400 -48.5345 -48.5035 -48.4905 -48.4650 -48.3533 -48.3404
   -48.2293 -48.2213 -48.1455 -48.1295 -48.1202 -48.1165 -48.0841 -48.0150
   -24.6538 -24.4662 -24.2548 -24.1131 -24.0417 -23.9813 -23.8857 -23.8647
[...]
     atom   41 type  3   force =     2.64840273    0.00000002  -16.46082386
     atom   42 type  3   force =     2.64850350    0.00000002   16.46086123
     The local contribution  to forces
     atom    1 type  1   force =     1.15596333    0.00000000   94.54443154
     atom    2 type  1   force =    -0.03118712    0.00000000   98.65182521
     atom    3 type  1   force =     0.04133833   -0.00000000   92.06533799
     atom    4 type  1   force =    -0.02964453    0.00000000   92.09290575
     atom    5 type  2   force =    -0.12263037    0.00000000  172.10729362
     atom    6 type  2   force =     0.02779489   -0.00000000  172.20990603
     atom    7 type  1   force =    -0.26940527    1.54093395   61.52387126
     atom    8 type  1   force =     0.23302487    1.61505311   61.68106789
     atom    9 type  2   force =    -0.03221043   -0.00000000  164.80186852
     atom   10 type  2   force =    -0.01668034    0.00000000  171.94284933
     atom   11 type  1   force =    -0.26940527   -1.54093391   61.52387126
     atom   12 type  1   force =     0.23302487   -1.61505311   61.68106789
     atom   13 type  1   force =     0.04364931    0.00000000   37.37080158
     atom   14 type  1   force =     0.03122956    0.00000000   37.41384223
     atom   15 type  1   force =     0.12652922    0.00000000   24.59754888
     atom   16 type  1   force =     0.02940164    0.00000000   27.41255027
     atom   17 type  2   force =    -0.00246719    0.00000000   -0.00583812
     atom   18 type  2   force =    -0.02336228    0.00000000   -0.00585448
     atom   19 type  1   force =     0.12366589   -1.45913309   -0.00243688
     atom   20 type  1   force =    -0.12266308   -1.46764761   -0.00243736
     atom   21 type  2   force =    -0.81588407   -0.00000000   -0.00598184
     atom   22 type  2   force =     0.32033606   -0.00000000   -0.00598671
     atom   23 type  1   force =     0.12366553    1.45876551   -0.00243688
     atom   24 type  1   force =    -0.12266290    1.46728017   -0.00243736
     atom   25 type  1   force =     0.12651929    0.00000000  -24.59930532
     atom   26 type  1   force =     0.02939914    0.00000000  -27.41430326
     atom   27 type  1   force =     0.04364979   -0.00000000  -37.37253485
     atom   28 type  1   force =     0.03123045    0.00000000  -37.41557261
     atom   29 type  2   force =    -0.12262283    0.00000000 -172.11336830
     atom   30 type  2   force =     0.02778955   -0.00000000 -172.21598183
     atom   31 type  1   force =    -0.26937852    1.54093667  -61.52629690
     atom   32 type  1   force =     0.23300026    1.61505692  -61.68349860
     atom   33 type  2   force =    -0.03222015   -0.00000000 -164.80768168
     atom   34 type  2   force =    -0.01669101    0.00000000 -171.94855594
     atom   35 type  1   force =    -0.26937852   -1.54093664  -61.52629690
     atom   36 type  1   force =     0.23300026   -1.61505692  -61.68349860
     atom   37 type  1   force =     0.04133676    0.00000000  -92.06923960
     atom   38 type  1   force =    -0.02964414    0.00000000  -92.09680827
     atom   39 type  1   force =     1.15600149    0.00000000  -94.54596600
     atom   40 type  1   force =    -0.03119548    0.00000000  -98.65318565
     atom   41 type  3   force =    -2.58202385    0.00000000   16.43316309
     atom   42 type  3   force =    -2.58202385    0.00000000  -16.43316309
     The core correction contribution to forces
     atom    1 type  1   force =    -0.01771980    0.00000000   -0.00288236
     atom    2 type  1   force =     0.00021420    0.00000000   -0.01128821
     atom    3 type  1   force =    -0.00006016    0.00000000   -0.01092664
     atom    4 type  1   force =     0.00000431    0.00000000   -0.01094908
     atom    5 type  2   force =     0.00000000    0.00000000    0.00000000
     atom    6 type  2   force =     0.00000000    0.00000000    0.00000000
     atom    7 type  1   force =    -0.00061731   -0.00040202    0.00101787
     atom    8 type  1   force =     0.00082161   -0.00039352    0.00068660
     atom    9 type  2   force =     0.00000000    0.00000000    0.00000000
     atom   10 type  2   force =     0.00000000    0.00000000    0.00000000
     atom   11 type  1   force =    -0.00061731    0.00040202    0.00101787
     atom   12 type  1   force =     0.00082161    0.00039352    0.00068660
     atom   13 type  1   force =    -0.00002585    0.00000000   -0.00033304
     atom   14 type  1   force =    -0.00006884   -0.00000000   -0.00023078
     atom   15 type  1   force =     0.00007349    0.00000000   -0.00015294
     atom   16 type  1   force =    -0.00006381    0.00000000   -0.00395547
     atom   17 type  2   force =     0.00000000    0.00000000    0.00000000
     atom   18 type  2   force =     0.00000000    0.00000000    0.00000000
     atom   19 type  1   force =    -0.00028525    0.00025060   -0.00000200
     atom   20 type  1   force =     0.00019317    0.00028270   -0.00000200
     atom   21 type  2   force =     0.00000000    0.00000000    0.00000000
     atom   22 type  2   force =     0.00000000    0.00000000    0.00000000
     atom   23 type  1   force =    -0.00028524   -0.00025121   -0.00000200
     atom   24 type  1   force =     0.00019316   -0.00028330   -0.00000201
     atom   25 type  1   force =     0.00007344    0.00000000    0.00015077
     atom   26 type  1   force =    -0.00006379    0.00000000    0.00395344
     atom   27 type  1   force =    -0.00002585    0.00000000    0.00033073
     atom   28 type  1   force =    -0.00006885   -0.00000000    0.00022843
     atom   29 type  2   force =     0.00000000    0.00000000    0.00000000
     atom   30 type  2   force =     0.00000000    0.00000000    0.00000000
     atom   31 type  1   force =    -0.00061726   -0.00040209   -0.00101940
     atom   32 type  1   force =     0.00082159   -0.00039355   -0.00068818
     atom   33 type  2   force =     0.00000000    0.00000000    0.00000000
     atom   34 type  2   force =     0.00000000    0.00000000    0.00000000
     atom   35 type  1   force =    -0.00061726    0.00040209   -0.00101940
     atom   36 type  1   force =     0.00082159    0.00039355   -0.00068818
     atom   37 type  1   force =    -0.00006016    0.00000000    0.01092191
     atom   38 type  1   force =     0.00000431   -0.00000000    0.01094446
     atom   39 type  1   force =    -0.01772051    0.00000000    0.00287984
     atom   40 type  1   force =     0.00021418   -0.00000000    0.01128659
     atom   41 type  3   force =     0.00000000    0.00000000    0.00000000
     atom   42 type  3   force =     0.00000000    0.00000000    0.00000000
     The Hubbard contrib.    to forces
     atom    1 type  1   force =     0.00000000    0.00000000    0.00000000
     atom    2 type  1   force =     0.00000000    0.00000000    0.00000000
     atom    3 type  1   force =     0.00000000    0.00000000    0.00000000
     atom    4 type  1   force =     0.00000000    0.00000000    0.00000000
     atom    5 type  2   force =     0.00000000    0.00000000    0.00000000
     atom    6 type  2   force =     0.00000000    0.00000000    0.00000000
     atom    7 type  1   force =     0.00000000    0.00000000    0.00000000
     atom    8 type  1   force =     0.00000000    0.00000000    0.00000000
     atom    9 type  2   force =     0.00000000    0.00000000    0.00000000
     atom   10 type  2   force =     0.00000000    0.00000000    0.00000000
     atom   11 type  1   force =     0.00000000    0.00000000    0.00000000
     atom   12 type  1   force =     0.00000000    0.00000000    0.00000000
     atom   13 type  1   force =     0.00000000    0.00000000    0.00000000
     atom   14 type  1   force =     0.00000000    0.00000000    0.00000000
     atom   15 type  1   force =     0.00000000    0.00000000    0.00000000
     atom   16 type  1   force =     0.00000000    0.00000000    0.00000000
     atom   17 type  2   force =     0.00000000    0.00000000    0.00000000
     atom   18 type  2   force =     0.00000000    0.00000000    0.00000000
     atom   19 type  1   force =     0.00000000    0.00000000    0.00000000
     atom   20 type  1   force =     0.00000000    0.00000000    0.00000000
     atom   21 type  2   force =     0.00000000    0.00000000    0.00000000
     atom   22 type  2   force =     0.00000000    0.00000000    0.00000000
     atom   23 type  1   force =     0.00000000    0.00000000    0.00000000
     atom   24 type  1   force =     0.00000000    0.00000000    0.00000000
     atom   25 type  1   force =     0.00000000    0.00000000    0.00000000
     atom   26 type  1   force =     0.00000000    0.00000000    0.00000000
     atom   27 type  1   force =     0.00000000    0.00000000    0.00000000
     atom   28 type  1   force =     0.00000000    0.00000000    0.00000000
     atom   29 type  2   force =     0.00000000    0.00000000    0.00000000
     atom   30 type  2   force =     0.00000000    0.00000000    0.00000000
     atom   31 type  1   force =     0.00000000    0.00000000    0.00000000
     atom   32 type  1   force =     0.00000000    0.00000000    0.00000000
     atom   33 type  2   force =     0.00000000    0.00000000    0.00000000
     atom   34 type  2   force =     0.00000000    0.00000000    0.00000000
     atom   35 type  1   force =     0.00000000    0.00000000    0.00000000
     atom   36 type  1   force =     0.00000000    0.00000000    0.00000000
     atom   37 type  1   force =     0.00000000    0.00000000    0.00000000
     atom   38 type  1   force =     0.00000000    0.00000000    0.00000000
     atom   39 type  1   force =     0.00000000    0.00000000    0.00000000
     atom   40 type  1   force =     0.00000000    0.00000000    0.00000000
     atom   41 type  3   force =     0.00000000    0.00000000    0.00000000
     atom   42 type  3   force =     0.00000000    0.00000000    0.00000000
     The SCF correction term to forces
     atom    1 type  1   force =    -0.00000013   -0.00000000    0.00000061
     atom    2 type  1   force =    -0.00000019   -0.00000000    0.00000026
     atom    3 type  1   force =     0.00000179    0.00000000   -0.00000004
     atom    4 type  1   force =    -0.00000184   -0.00000000   -0.00000006
     atom    5 type  2   force =     0.00000007   -0.00000000   -0.00000065
     atom    6 type  2   force =     0.00000015   -0.00000000    0.00000080
     atom    7 type  1   force =    -0.00000004   -0.00000072    0.00000001
     atom    8 type  1   force =     0.00000014    0.00000031    0.00000038
     atom    9 type  2   force =     0.00000176    0.00000000    0.00000067
     atom   10 type  2   force =    -0.00000184    0.00000000    0.00000079
     atom   11 type  1   force =    -0.00000004    0.00000072    0.00000001
     atom   12 type  1   force =     0.00000014   -0.00000031    0.00000038
     atom   13 type  1   force =     0.00000119   -0.00000000    0.00000079
     atom   14 type  1   force =    -0.00000123    0.00000000    0.00000035
     atom   15 type  1   force =     0.00000061    0.00000000   -0.00000001
     atom   16 type  1   force =    -0.00000050    0.00000000    0.00000011
     atom   17 type  2   force =     0.00000106    0.00000000   -0.00000000
     atom   18 type  2   force =    -0.00000089    0.00000000    0.00000000
     atom   19 type  1   force =    -0.00000056   -0.00000052    0.00000000
     atom   20 type  1   force =     0.00000030   -0.00000083   -0.00000000
     atom   21 type  2   force =    -0.00000014    0.00000000   -0.00000000
     atom   22 type  2   force =     0.00000004   -0.00000000   -0.00000001
     atom   23 type  1   force =    -0.00000056    0.00000052    0.00000000
     atom   24 type  1   force =     0.00000030    0.00000083   -0.00000000
     atom   25 type  1   force =     0.00000061    0.00000000    0.00000001
     atom   26 type  1   force =    -0.00000050    0.00000000   -0.00000011
     atom   27 type  1   force =     0.00000119   -0.00000000   -0.00000079
     atom   28 type  1   force =    -0.00000123   -0.00000000   -0.00000035
     atom   29 type  2   force =     0.00000007   -0.00000000    0.00000065
     atom   30 type  2   force =     0.00000015   -0.00000000   -0.00000080
     atom   31 type  1   force =    -0.00000004   -0.00000072   -0.00000001
     atom   32 type  1   force =     0.00000014    0.00000031   -0.00000038
     atom   33 type  2   force =     0.00000176    0.00000000   -0.00000067
     atom   34 type  2   force =    -0.00000184    0.00000000   -0.00000079
     atom   35 type  1   force =    -0.00000004    0.00000072   -0.00000001
     atom   36 type  1   force =     0.00000014   -0.00000031   -0.00000038
     atom   37 type  1   force =     0.00000179    0.00000000    0.00000005
     atom   38 type  1   force =    -0.00000184   -0.00000000    0.00000006
     atom   39 type  1   force =    -0.00000013   -0.00000000   -0.00000060
     atom   40 type  1   force =    -0.00000019   -0.00000000   -0.00000026
     atom   41 type  3   force =     0.00000008   -0.00000000    0.00000000
     atom   42 type  3   force =     0.00000008   -0.00000000   -0.00000000

     Total force =     0.000317     Total SCF correction =     0.000007
     Energy error            =      2.6E-07 Ry
     Gradient error          =      8.7E-05 Ry/Bohr

     bfgs converged in  21 scf cycles and  20 bfgs steps
     (criteria: energy <  1.0E-04 Ry, force <  1.0E-04 Ry/Bohr)

     End of BFGS Geometry Optimization

     Final energy             =   -3430.2609102388 Ry

     File /storage/home/mgm6007/ixd4/Maria/Strain0_Files/RuO2-110-0-0/RuO2-110-0-0.bfgs deleted, as requested
Begin final coordinates

ATOMIC_POSITIONS (crystal)
O            -0.0083459204        0.5000000000        0.2723387843
O             0.4967576532        0.5000000000        0.2728021898
O            -0.0000946350        0.0000000000        0.3069673201
O             0.4994971041        0.0000000000        0.3067316710
Ru            0.2498862367        0.0000000000        0.3543466469
Ru            0.7494080962        0.0000000000        0.3543182034
O             0.2480752117        0.3095101564        0.3583184142
O             0.7509213740        0.3095820869        0.3580888258
Ru           -0.0006409253        0.5000000000        0.3582402396
Ru            0.5001828603        0.5000000000        0.3499668720
O             0.2480752117        0.6904898435        0.3583184142
O             0.7509213740        0.6904179131        0.3580888258
O            -0.0000982217        0.0000000000        0.4121347770
O             0.5001418188        0.0000000000        0.4121344023
O             0.0028994514        0.5000000000        0.4464274574
O             0.5019156402        0.5000000000        0.4415228036
Ru            0.0004718627        0.0000000000        0.5000010000
Ru            0.5005645416        0.0000000000        0.5000010000
O             0.2513018691        0.1900564945        0.5000010000
O             0.7497207215        0.1901761358        0.5000010000
Ru            0.2576466092        0.5000000000        0.5000010000
Ru            0.7448324680        0.5000000000        0.5000010000
O             0.2513018691        0.8099445055        0.5000010000
O             0.7497207215        0.8098248642        0.5000010000
O             0.0028994514        0.5000000000        0.5535735426
O             0.5019156402        0.5000000000        0.5584781964
O            -0.0000982217        0.0000000000        0.5878662230
O             0.5001418188        0.0000000000        0.5878665977
Ru            0.2498862367        0.0000000000        0.6456543531
Ru            0.7494080962        0.0000000000        0.6456827966
O             0.2480752117        0.3095101564        0.6416825858
O             0.7509213740        0.3095820869        0.6419121742
Ru           -0.0006409253        0.5000000000        0.6417607604
Ru            0.5001828603        0.5000000000        0.6500341280
O             0.2480752117        0.6904898435        0.6416825858
O             0.7509213740        0.6904179131        0.6419121742
O            -0.0000946350        0.0000000000        0.6930346799
O             0.4994971041        0.0000000000        0.6932703290
O            -0.0083459204        0.5000000000        0.7276622157
O             0.4967576532        0.5000000000        0.7271988102
H             0.1253523388        0.5000000000        0.2507214291
H             0.1253523388        0.5000000000        0.7492785709
End final coordinates

     Writing all to output data dir /storage/home/mgm6007/ixd4/Maria/Strain0_Files/RuO2-110-0-0/RuO2-110-0-0.save/

     General routines

     Parallel routines

     Environ routines

   This run was terminated on:  20:18: 1  19Jul2023

   JOB DONE.