     Program PWSCF v.7.2 starts on 26Jul2023 at 11:18:59
        Git branch: heads/qe-7.2
        Last git commit: b4c5e8deeb7d1863e7553a87b45f8d22c21926a5
        Last git commit date: Mon Mar 27 16:12:09 2023 +0000
        Last git commit subject: Merge branch 'merge_fix_hubbard' into 'develop'

     Reading input from RuO2-110-0-024.in

     Current dimensions of program PWSCF are:
     Max number of different atomic species (ntypx) = 10
     Max number of k-points (npk) =  40000
     Max angular momentum in pseudopotentials (lmaxx) =  4

     Reading input from environ.in:
     * Environ restarting
     * setting up water environment
     * using electronic solvent mode
     * setting boundary derivatives method to SCCS default

     file O.pbe-n-kjpaw_psl.0.1.UPF: wavefunction(s)  2P renormalized
     Message from routine setup:
     using ibrav=0 with symmetry is DISCOURAGED, use correct ibrav instead

     R & G space division:  proc/nbgrp/npool/nimage =      20
     Subspace diagonalization in iterative solution of the eigenvalue problem:
     one sub-group per band group will be used

     Using Slab Decomposition

     bravais-lattice index     =            0
     lattice parameter (alat)  =      12.3824  a.u.
     unit-cell volume          =    5825.9133 (a.u.)^3
     number of atoms/cell      =           46
     number of atomic types    =            3
     number of electrons       =       366.00
     number of Kohn-Sham states=          220
     kinetic-energy cutoff     =      50.0000  Ry
     charge density cutoff     =     500.0000  Ry
     scf convergence threshold =      1.0E-09
     mixing beta               =       0.7000
     number of iterations used =            8  local-TF  mixing
     energy convergence thresh.=      1.0E-04
     force convergence thresh. =      1.0E-04
     Exchange-correlation= PBE
                           (   1   4   3   4   0   0   0)
     nstep                     =          200

                                  Environ Setup Summary

          O. Andreussi, I. Dabo and N. Marzari, J. Chem. Phys. 136, 064102 (2012)

     in publications or presentations arising from this work.

     Parameters

     compensation onset threshold      =               0.1000E+00
     static permittivity               =                    78.30
     surface tension in input (dyn/cm) =                    47.90
     surface tension in internal units =               0.6153E-04
     external pressure in input (GPa)  =                    -0.36
     external pressure in inter. units =              -0.2447E-04

     Solvent Boundary

     solvent mode                      =               electronic
     derivatives method                =                    chain
     numerical core for derivatives    =                      fft
     switching function adopted        =                     SCCS
     density limit for vacuum region   =               0.5000E-02
     density limit for bulk solvent    =               0.1000E-03

     Electrostatic Setup

     electrostatic problem to solve    =              generalized
     numerical solver adopted          =                       cg
     type of auxiliary density adopted =                     none
     numerical core for poisson        =                      fft
     type of pbc corrections           =                parabolic
     numerical core for corrections    =                      1da

     celldm(1)=  12.382447  celldm(2)=   0.000000  celldm(3)=   0.000000
     celldm(4)=   0.000000  celldm(5)=   0.000000  celldm(6)=   0.000000

     crystal axes: (cart. coord. in units of alat)
               a(1) = (   1.000000   0.000000   0.000000 )
               a(2) = (   0.000000   0.908473   0.000000 )
               a(3) = (   0.000000   0.000000   3.377790 )

     reciprocal axes: (cart. coord. in units 2 pi/alat)
               b(1) = (  1.000000  0.000000  0.000000 )
               b(2) = (  0.000000  1.100748  0.000000 )
               b(3) = (  0.000000  0.000000  0.296052 )

     PseudoPot. # 1 for O  read from file:
     /gpfs/group/ixd4/default/Simon/pseudopotentials/materialscloud/SSSP_1.3.0_PBE_efficiency/O.pbe-n-kjpaw_psl.0.1.UPF
     MD5 check sum: 0234752ac141de4415c5fc33072bef88
     Pseudo is Projector augmented-wave + core cor, Zval =  6.0
     Generated using "atomic" code by A. Dal Corso  v.5.0.99 svn rev. 10869
     Shape of augmentation charge: BESSEL
     Using radial grid of 1095 points,  4 beta functions with:
                l(1) =   0
                l(2) =   0
                l(3) =   1
                l(4) =   1
     Q(r) pseudized with 0 coefficients

     PseudoPot. # 2 for Ru read from file:
     /gpfs/group/ixd4/default/Simon/pseudopotentials/materialscloud/SSSP_1.3.0_PBE_efficiency/Ru_ONCV_PBE-1.0.oncvpsp.upf
     MD5 check sum: be037bb81c227cfb9b1461a9f099f4bd
     Pseudo is Norm-conserving, Zval = 16.0
     Generated using ONCVPSP code by D. R. Hamann
     Using radial grid of 1458 points,  6 beta functions with:
                l(1) =   0
                l(2) =   0
                l(3) =   1
                l(4) =   1
                l(5) =   2
                l(6) =   2

     PseudoPot. # 3 for H  read from file:
     /gpfs/group/ixd4/default/Simon/pseudopotentials/materialscloud/SSSP_1.3.0_PBE_efficiency/H.pbe-rrkjus_psl.1.0.0.UPF
     MD5 check sum: f52b6d4d1c606e5624b1dc7b2218f220
     Pseudo is Ultrasoft, Zval =  1.0
     Generated using "atomic" code by A. Dal Corso  v.5.1
     Using radial grid of  929 points,  2 beta functions with:
                l(1) =   0
                l(2) =   0
     Q(r) pseudized with 0 coefficients

     atomic species   valence    mass     pseudopotential
        O              6.00    15.99940     O ( 1.00)
        Ru            16.00   101.07000     Ru( 1.00)
        H              1.00     1.00794     H ( 1.00)

      4 Sym. Ops. (no inversion) found

   Cartesian axes

     site n.     atom                  positions (alat units)
         1           O   tau(   1) = (   0.0137326   0.4542364   0.9127480  )
         2           O   tau(   2) = (   0.4776861   0.4542364   0.9183959  )
         3           O   tau(   3) = (  -0.0020597   0.0000000   0.9769057  )
         4           O   tau(   4) = (   0.4969173   0.0000000   1.0402075  )
         5           Ru  tau(   5) = (   0.2564272   0.0000000   1.2095807  )
         6           Ru  tau(   6) = (   0.7399595   0.0000000   1.2068393  )
         7           O   tau(   7) = (   0.2456872   0.2761301   1.2111645  )
         8           O   tau(   8) = (   0.7510967   0.2792459   1.2024008  )
         9           Ru  tau(   9) = (  -0.0003166   0.4542364   1.2128358  )
        10           Ru  tau(  10) = (   0.5000176   0.4542364   1.1824434  )
        11           O   tau(  11) = (   0.2456872   0.6323427   1.2111645  )
        12           O   tau(  12) = (   0.7510967   0.6292270   1.2024008  )
        13           O   tau(  13) = (  -0.0047818   0.0000000   1.3907550  )
        14           O   tau(  14) = (   0.4991664   0.0000000   1.3932793  )
        15           O   tau(  15) = (  -0.0005084   0.4542364   1.5078499  )
        16           O   tau(  16) = (   0.4978758   0.4542364   1.4882622  )
        17           Ru  tau(  17) = (  -0.0041413   0.0000000   1.6888985  )
        18           Ru  tau(  18) = (   0.5004176   0.0000000   1.6888985  )
        19           O   tau(  19) = (   0.2480217   0.1736443   1.6888985  )
        20           O   tau(  20) = (   0.7476853   0.1785495   1.6888985  )
        21           Ru  tau(  21) = (   0.2561116   0.4542364   1.6888985  )
        22           Ru  tau(  22) = (   0.7418425   0.4542364   1.6888985  )
        23           O   tau(  23) = (   0.2480217   0.7348294   1.6888985  )
        24           O   tau(  24) = (   0.7476853   0.7299242   1.6888985  )
        25           O   tau(  25) = (  -0.0005084   0.4542364   1.8699438  )
        26           O   tau(  26) = (   0.4978758   0.4542364   1.8895315  )
        27           O   tau(  27) = (  -0.0047818   0.0000000   1.9870387  )
        28           O   tau(  28) = (   0.4991664   0.0000000   1.9845144  )
        29           Ru  tau(  29) = (   0.2564272   0.0000000   2.1682130  )
        30           Ru  tau(  30) = (   0.7399595   0.0000000   2.1709544  )
        31           O   tau(  31) = (   0.2456872   0.2761301   2.1666292  )
        32           O   tau(  32) = (   0.7510967   0.2792459   2.1753929  )
        33           Ru  tau(  33) = (  -0.0003166   0.4542364   2.1649579  )
        34           Ru  tau(  34) = (   0.5000176   0.4542364   2.1953503  )
        35           O   tau(  35) = (   0.2456872   0.6323427   2.1666292  )
        36           O   tau(  36) = (   0.7510967   0.6292270   2.1753929  )
        37           O   tau(  37) = (  -0.0020597   0.0000000   2.4008914  )
        38           O   tau(  38) = (   0.4969173   0.0000000   2.3375896  )
        39           O   tau(  39) = (   0.0137326   0.4542364   2.4650457  )
        40           O   tau(  40) = (   0.4776861   0.4542364   2.4593978  )
        41           H   tau(  41) = (   0.1630990   0.4542364   0.8747349  )
        42           H   tau(  42) = (   0.1630990   0.4542364   2.5030554  )
        43           H   tau(  43) = (  -0.0029851   0.1090966   0.8865530  )
        44           H   tau(  44) = (  -0.0029851   0.1090966   2.4912373  )
        45           H   tau(  45) = (  -0.0029851   0.7993762   0.8865530  )
        46           H   tau(  46) = (  -0.0029851   0.7993762   2.4912373  )

     number of k points=     1  Marzari-Vanderbilt smearing, width (Ry)=  0.0300
                       cart. coord. in units 2pi/alat
        k(    1) = (   0.2500000   0.2751871   0.0000000), wk =   2.0000000

     Check: negative core charge=   -0.000001

     Initial potential from superposition of free atoms

     starting charge     365.9933, renormalised to     366.0000

     add environment contribution to local potential
     Polarization accuracy = 3.0E-12, # of iterations =  24

     negative rho (up, down):  3.245E-05 0.000E+00
     Starting wfcs are  238 randomized atomic wfcs
     Checking if some PAW data can be deallocated...

     Self-consistent Calculation

     iteration #  1     ecut=    50.00 Ry     beta= 0.70
     Davidson diagonalization with overlap
     ethr =  1.00E-02,  avg # of iterations =  2.0

     total energy              =   -3432.62274815 Ry
     estimated scf accuracy    <       9.73545153 Ry
     electrostatic embedding   =      -0.00169451 Ry
     cavitation energy         =       0.01938009 Ry
     PV energy                 =      -0.08412188 Ry
     correction to one-el term =     220.90345572 Ry

[...]

     negative rho (up, down):  8.185E-04 0.000E+00

[...]

     the potential shift due to the Gaussian-smeared nuclei is    -1.3426 ev

     End of self-consistent calculation

          k = 0.2500 0.2752 0.0000 ( 34780 PWs)   bands (ev):

   -77.5917 -77.5780 -77.2490 -77.2359 -77.1457 -77.1326 -76.9709 -76.9577
   -76.9353 -76.9143 -76.7840 -76.7798 -48.1056 -48.0919 -47.7040 -47.6909
[...]
     atom   18 type  2   force =     0.03705432    0.00000000   -0.00583132
     atom   19 type  1   force =     0.15428160   -0.63963176   -0.00246655
     atom   20 type  1   force =    -0.14408093   -0.67335816   -0.00247084
     atom   21 type  2   force =    -1.03663394    0.00000000   -0.00605012
     atom   22 type  2   force =     0.97358438   -0.00000000   -0.00606149
     atom   23 type  1   force =     0.15427994    0.63928353   -0.00246655
     atom   24 type  1   force =    -0.14408248    0.67301041   -0.00247084
     atom   25 type  1   force =     0.12853146   -0.00000000  -25.05168259
     atom   26 type  1   force =    -0.15121241   -0.00000000  -27.11803753
     atom   27 type  1   force =    -0.02584375   -0.00000000  -40.43302542
     atom   28 type  1   force =    -0.19714390    0.00000000  -37.02291143
     atom   29 type  2   force =     6.61449380    0.00000000 -171.97605479
     atom   30 type  2   force =    -6.19928981   -0.00000000 -172.51968278
     atom   31 type  1   force =     0.39420826    0.53234454  -62.56940057
     atom   32 type  1   force =    -0.68632740    0.50916693  -64.34491305
     atom   33 type  2   force =     1.18479847    0.00000000 -168.46347727
     atom   34 type  2   force =    -1.00979156   -0.00000000 -174.90628553
     atom   35 type  1   force =     0.39420826   -0.53234454  -62.56940057
     atom   36 type  1   force =    -0.68632740   -0.50916693  -64.34491305
     atom   37 type  1   force =    -0.03461275    0.00000000  -90.62283834
     atom   38 type  1   force =    -0.14830056    0.00000000  -94.44149259
     atom   39 type  1   force =     1.66546504    0.00000000  -94.78949958
     atom   40 type  1   force =    -0.16914463    0.00000000  -99.82473700
     atom   41 type  3   force =    -2.74663122   -0.00000000   16.22372955
     atom   42 type  3   force =    -2.74663122   -0.00000000  -16.22372955
     atom   43 type  3   force =     0.09278264   -2.14192374   16.94331707
     atom   44 type  3   force =     0.09278264   -2.14192374  -16.94331707
     atom   45 type  3   force =     0.09278264    2.14192374   16.94331707
     atom   46 type  3   force =     0.09278264    2.14192374  -16.94331707
     The core correction contribution to forces
     atom    1 type  1   force =    -0.01726988    0.00000000   -0.00489937
     atom    2 type  1   force =    -0.00008395   -0.00000000   -0.01021054
     atom    3 type  1   force =     0.00058938    0.00000000    0.01357386
     atom    4 type  1   force =     0.00003238   -0.00000000   -0.01233093
     atom    5 type  2   force =     0.00000000    0.00000000    0.00000000
     atom    6 type  2   force =     0.00000000    0.00000000    0.00000000
     atom    7 type  1   force =    -0.00057878    0.00017935    0.00103586
     atom    8 type  1   force =     0.00115506    0.00019180    0.00045587
     atom    9 type  2   force =     0.00000000    0.00000000    0.00000000
     atom   10 type  2   force =     0.00000000    0.00000000    0.00000000
     atom   11 type  1   force =    -0.00057878   -0.00017935    0.00103586
     atom   12 type  1   force =     0.00115507   -0.00019180    0.00045587
     atom   13 type  1   force =     0.00010375   -0.00000000   -0.00159561
     atom   14 type  1   force =     0.00022538    0.00000000    0.00250280
     atom   15 type  1   force =     0.00021456   -0.00000000    0.00062547
     atom   16 type  1   force =     0.00002548    0.00000000   -0.00264356
     atom   17 type  2   force =     0.00000000    0.00000000    0.00000000
     atom   18 type  2   force =     0.00000000    0.00000000    0.00000000
     atom   19 type  1   force =    -0.00038501   -0.00039540   -0.00000208
     atom   20 type  1   force =     0.00014939   -0.00034988   -0.00000209
     atom   21 type  2   force =     0.00000000    0.00000000    0.00000000
     atom   22 type  2   force =     0.00000000    0.00000000    0.00000000
     atom   23 type  1   force =    -0.00038501    0.00039488   -0.00000207
     atom   24 type  1   force =     0.00014939    0.00034938   -0.00000209
     atom   25 type  1   force =     0.00021453    0.00000000   -0.00062770
     atom   26 type  1   force =     0.00002550   -0.00000000    0.00264148
     atom   27 type  1   force =     0.00010375    0.00000000    0.00159332
     atom   28 type  1   force =     0.00022541   -0.00000000   -0.00250517
     atom   29 type  2   force =     0.00000000    0.00000000    0.00000000
     atom   30 type  2   force =     0.00000000    0.00000000    0.00000000
     atom   31 type  1   force =    -0.00057867    0.00017936   -0.00103763
     atom   32 type  1   force =     0.00115493    0.00019188   -0.00045768
     atom   33 type  2   force =     0.00000000    0.00000000    0.00000000
     atom   34 type  2   force =     0.00000000    0.00000000    0.00000000
     atom   35 type  1   force =    -0.00057867   -0.00017936   -0.00103763
     atom   36 type  1   force =     0.00115493   -0.00019188   -0.00045768
     atom   37 type  1   force =     0.00058941   -0.00000000   -0.01357750
     atom   38 type  1   force =     0.00003230    0.00000000    0.01232721
     atom   39 type  1   force =    -0.01727065   -0.00000000    0.00489704
     atom   40 type  1   force =    -0.00008409   -0.00000000    0.01020860
     atom   41 type  3   force =     0.00000000    0.00000000    0.00000000
     atom   42 type  3   force =     0.00000000    0.00000000    0.00000000
     atom   43 type  3   force =     0.00000000    0.00000000    0.00000000
     atom   44 type  3   force =     0.00000000    0.00000000    0.00000000
     atom   45 type  3   force =     0.00000000    0.00000000    0.00000000
     atom   46 type  3   force =     0.00000000    0.00000000    0.00000000
     The Hubbard contrib.    to forces
     atom    1 type  1   force =     0.00000000    0.00000000    0.00000000
     atom    2 type  1   force =     0.00000000    0.00000000    0.00000000
     atom    3 type  1   force =     0.00000000    0.00000000    0.00000000
     atom    4 type  1   force =     0.00000000    0.00000000    0.00000000
     atom    5 type  2   force =     0.00000000    0.00000000    0.00000000
     atom    6 type  2   force =     0.00000000    0.00000000    0.00000000
     atom    7 type  1   force =     0.00000000    0.00000000    0.00000000
     atom    8 type  1   force =     0.00000000    0.00000000    0.00000000
     atom    9 type  2   force =     0.00000000    0.00000000    0.00000000
     atom   10 type  2   force =     0.00000000    0.00000000    0.00000000
     atom   11 type  1   force =     0.00000000    0.00000000    0.00000000
     atom   12 type  1   force =     0.00000000    0.00000000    0.00000000
     atom   13 type  1   force =     0.00000000    0.00000000    0.00000000
     atom   14 type  1   force =     0.00000000    0.00000000    0.00000000
     atom   15 type  1   force =     0.00000000    0.00000000    0.00000000
     atom   16 type  1   force =     0.00000000    0.00000000    0.00000000
     atom   17 type  2   force =     0.00000000    0.00000000    0.00000000
     atom   18 type  2   force =     0.00000000    0.00000000    0.00000000
     atom   19 type  1   force =     0.00000000    0.00000000    0.00000000
     atom   20 type  1   force =     0.00000000    0.00000000    0.00000000
     atom   21 type  2   force =     0.00000000    0.00000000    0.00000000
     atom   22 type  2   force =     0.00000000    0.00000000    0.00000000
     atom   23 type  1   force =     0.00000000    0.00000000    0.00000000
     atom   24 type  1   force =     0.00000000    0.00000000    0.00000000
     atom   25 type  1   force =     0.00000000    0.00000000    0.00000000
     atom   26 type  1   force =     0.00000000    0.00000000    0.00000000
     atom   27 type  1   force =     0.00000000    0.00000000    0.00000000
     atom   28 type  1   force =     0.00000000    0.00000000    0.00000000
     atom   29 type  2   force =     0.00000000    0.00000000    0.00000000
     atom   30 type  2   force =     0.00000000    0.00000000    0.00000000
     atom   31 type  1   force =     0.00000000    0.00000000    0.00000000
     atom   32 type  1   force =     0.00000000    0.00000000    0.00000000
     atom   33 type  2   force =     0.00000000    0.00000000    0.00000000
     atom   34 type  2   force =     0.00000000    0.00000000    0.00000000
     atom   35 type  1   force =     0.00000000    0.00000000    0.00000000
     atom   36 type  1   force =     0.00000000    0.00000000    0.00000000
     atom   37 type  1   force =     0.00000000    0.00000000    0.00000000
     atom   38 type  1   force =     0.00000000    0.00000000    0.00000000
     atom   39 type  1   force =     0.00000000    0.00000000    0.00000000
     atom   40 type  1   force =     0.00000000    0.00000000    0.00000000
     atom   41 type  3   force =     0.00000000    0.00000000    0.00000000
     atom   42 type  3   force =     0.00000000    0.00000000    0.00000000
     atom   43 type  3   force =     0.00000000    0.00000000    0.00000000
     atom   44 type  3   force =     0.00000000    0.00000000    0.00000000
     atom   45 type  3   force =     0.00000000    0.00000000    0.00000000
     atom   46 type  3   force =     0.00000000    0.00000000    0.00000000
     The SCF correction term to forces
     atom    1 type  1   force =     0.00000016   -0.00000000   -0.00000180
     atom    2 type  1   force =     0.00000008    0.00000000   -0.00000169
     atom    3 type  1   force =     0.00000006   -0.00000000   -0.00000181
     atom    4 type  1   force =     0.00000008    0.00000000   -0.00000225
     atom    5 type  2   force =     0.00000009   -0.00000000   -0.00000682
     atom    6 type  2   force =     0.00000027   -0.00000000   -0.00000671
     atom    7 type  1   force =     0.00000019   -0.00000022   -0.00000255
     atom    8 type  1   force =    -0.00000027   -0.00000027   -0.00000258
     atom    9 type  2   force =    -0.00000020    0.00000000   -0.00000688
     atom   10 type  2   force =     0.00000030    0.00000000   -0.00000748
     atom   11 type  1   force =     0.00000019    0.00000022   -0.00000255
     atom   12 type  1   force =    -0.00000027    0.00000027   -0.00000258
     atom   13 type  1   force =    -0.00000040   -0.00000000   -0.00000236
     atom   14 type  1   force =     0.00000013   -0.00000000   -0.00000218
     atom   15 type  1   force =     0.00000019    0.00000000   -0.00000203
     atom   16 type  1   force =     0.00000004    0.00000000   -0.00000228
     atom   17 type  2   force =    -0.00000025   -0.00000000    0.00000001
     atom   18 type  2   force =     0.00000023   -0.00000000    0.00000001
     atom   19 type  1   force =    -0.00000011   -0.00000085    0.00000000
     atom   20 type  1   force =     0.00000010   -0.00000114    0.00000000
     atom   21 type  2   force =    -0.00000004    0.00000000    0.00000001
     atom   22 type  2   force =    -0.00000062    0.00000000    0.00000000
     atom   23 type  1   force =    -0.00000011    0.00000085    0.00000000
     atom   24 type  1   force =     0.00000010    0.00000114    0.00000000
     atom   25 type  1   force =     0.00000019    0.00000000    0.00000203
     atom   26 type  1   force =     0.00000004    0.00000000    0.00000228
     atom   27 type  1   force =    -0.00000040   -0.00000000    0.00000236
     atom   28 type  1   force =     0.00000013   -0.00000000    0.00000219
     atom   29 type  2   force =     0.00000009   -0.00000000    0.00000681
     atom   30 type  2   force =     0.00000026   -0.00000000    0.00000669
     atom   31 type  1   force =     0.00000019   -0.00000022    0.00000255
     atom   32 type  1   force =    -0.00000027   -0.00000027    0.00000257
     atom   33 type  2   force =    -0.00000020    0.00000000    0.00000687
     atom   34 type  2   force =     0.00000030    0.00000000    0.00000747
     atom   35 type  1   force =     0.00000019    0.00000022    0.00000255
     atom   36 type  1   force =    -0.00000027    0.00000027    0.00000257
     atom   37 type  1   force =     0.00000006   -0.00000000    0.00000181
     atom   38 type  1   force =     0.00000008   -0.00000000    0.00000225
     atom   39 type  1   force =     0.00000016   -0.00000000    0.00000179
     atom   40 type  1   force =     0.00000008   -0.00000000    0.00000169
     atom   41 type  3   force =     0.00000004   -0.00000000   -0.00000026
     atom   42 type  3   force =     0.00000004   -0.00000000    0.00000026
     atom   43 type  3   force =     0.00000001   -0.00000005   -0.00000024
     atom   44 type  3   force =     0.00000001   -0.00000005    0.00000024
     atom   45 type  3   force =     0.00000001    0.00000005   -0.00000024
     atom   46 type  3   force =     0.00000001    0.00000005    0.00000024

     Total force =     0.000348     Total SCF correction =     0.000023
     Energy error            =      4.9E-07 Ry
     Gradient error          =      8.8E-05 Ry/Bohr

     bfgs converged in  32 scf cycles and  31 bfgs steps
     (criteria: energy <  1.0E-04 Ry, force <  1.0E-04 Ry/Bohr)

     End of BFGS Geometry Optimization

     Final energy             =   -3435.0755425622 Ry

     File /storage/home/mgm6007/ixd4/Maria/StrainJin_Files/RuO2-110-0-024/RuO2-110-0-024.bfgs deleted, as requested
Begin final coordinates

ATOMIC_POSITIONS (crystal)
O             0.0104501428        0.5000000000        0.2683909874
O             0.4826294611        0.5000000000        0.2723915333
O            -0.0030164934        0.0000000000        0.2906571741
O             0.4977050398        0.0000000000        0.3063621781
Ru            0.2628519723        0.0000000000        0.3579588432
Ru            0.7349530565        0.0000000000        0.3574243831
O             0.2466214526        0.3111216139        0.3591400517
O             0.7528825804        0.3124779778        0.3568867540
Ru            0.0010310562        0.5000000000        0.3589869714
Ru            0.5014590327        0.5000000000        0.3508600036
O             0.2466214526        0.6888783861        0.3591400517
O             0.7528825804        0.6875220222        0.3568867540
O            -0.0035437943        0.0000000000        0.4107043280
O             0.4991558994        0.0000000000        0.4118247825
O            -0.0005878138        0.5000000000        0.4467502364
O             0.4996493112        0.5000000000        0.4431230274
Ru           -0.0025223768        0.0000000000        0.5000010000
Ru            0.4977454215        0.0000000000        0.5000010000
O             0.2465420306        0.1863158583        0.5000010000
O             0.7476331363        0.1865016064        0.5000010000
Ru            0.2531411483        0.5000000000        0.5000010000
Ru            0.7474332334        0.5000000000        0.5000010000
O             0.2465420306        0.8136851417        0.5000010000
O             0.7476331363        0.8134993936        0.5000010000
O            -0.0005878138        0.5000000000        0.5532507636
O             0.4996493112        0.5000000000        0.5568779726
O            -0.0035437943        0.0000000000        0.5892966720
O             0.4991558994        0.0000000000        0.5881762175
Ru            0.2628519723        0.0000000000        0.6420421568
Ru            0.7349530565        0.0000000000        0.6425766169
O             0.2466214526        0.3111216139        0.6408609483
O             0.7528825804        0.3124779778        0.6431142460
Ru            0.0010310562        0.5000000000        0.6410140286
Ru            0.5014590327        0.5000000000        0.6491409964
O             0.2466214526        0.6888783861        0.6408609483
O             0.7528825804        0.6875220222        0.6431142460
O            -0.0030164934        0.0000000000        0.7093448259
O             0.4977050398        0.0000000000        0.6936398219
O             0.0104501428        0.5000000000        0.7316100126
O             0.4826294611        0.5000000000        0.7276094667
H             0.1542712012        0.5000000000        0.2559763774
H             0.1542712012        0.5000000000        0.7440236226
H            -0.0052275087        0.1351007690        0.2643313171
H            -0.0052275087        0.1351007690        0.7356686829
H            -0.0052275087        0.8648992310        0.2643313171
H            -0.0052275087        0.8648992310        0.7356686829
End final coordinates

     Writing all to output data dir /storage/home/mgm6007/ixd4/Maria/StrainJin_Files/RuO2-110-0-024/RuO2-110-0-024.save/

     General routines

     Parallel routines

     Environ routines

   This run was terminated on:  18: 8:51  27Jul2023

   JOB DONE.