     Program PWSCF v.7.2 starts on 14Jul2023 at 10:23: 8
        Git branch: heads/qe-7.2
        Last git commit: b4c5e8deeb7d1863e7553a87b45f8d22c21926a5
        Last git commit date: Mon Mar 27 16:12:09 2023 +0000
        Last git commit subject: Merge branch 'merge_fix_hubbard' into 'develop'

     Reading input from RuO2-110-0-01.in

     Current dimensions of program PWSCF are:
     Max number of different atomic species (ntypx) = 10
     Max number of k-points (npk) =  40000
     Max angular momentum in pseudopotentials (lmaxx) =  4

     Reading input from environ.in:
     * Environ restarting
     * setting up water environment
     * using electronic solvent mode
     * setting boundary derivatives method to SCCS default

     file O.pbe-n-kjpaw_psl.0.1.UPF: wavefunction(s)  2P renormalized
     Found identity + ( -0.5000  0.0000  0.0000) symmetry
     This is a supercell, fractional translations are disabled
     Message from routine setup:
     using ibrav=0 with symmetry is DISCOURAGED, use correct ibrav instead

     R & G space division:  proc/nbgrp/npool/nimage =      20
     Subspace diagonalization in iterative solution of the eigenvalue problem:
     one sub-group per band group will be used

     Using Slab Decomposition

     bravais-lattice index     =            0
     lattice parameter (alat)  =      12.3893  a.u.
     unit-cell volume          =    5808.5831 (a.u.)^3
     number of atoms/cell      =           44
     number of atomic types    =            3
     number of electrons       =       364.00
     number of Kohn-Sham states=          218
     kinetic-energy cutoff     =      50.0000  Ry
     charge density cutoff     =     500.0000  Ry
     scf convergence threshold =      1.0E-10
     mixing beta               =       0.7000
     number of iterations used =            8  local-TF  mixing
     energy convergence thresh.=      1.0E-05
     force convergence thresh. =      1.0E-05
     Exchange-correlation= PBE
                           (   1   4   3   4   0   0   0)
     nstep                     =          200

                                  Environ Setup Summary

          O. Andreussi, I. Dabo and N. Marzari, J. Chem. Phys. 136, 064102 (2012)

     in publications or presentations arising from this work.

     Parameters

     compensation onset threshold      =               0.1000E+00
     static permittivity               =                    78.30
     surface tension in input (dyn/cm) =                    47.90
     surface tension in internal units =               0.6153E-04
     external pressure in input (GPa)  =                    -0.36
     external pressure in inter. units =              -0.2447E-04

     Solvent Boundary

     solvent mode                      =               electronic
     derivatives method                =                    chain
     numerical core for derivatives    =                      fft
     switching function adopted        =                     SCCS
     density limit for vacuum region   =               0.5000E-02
     density limit for bulk solvent    =               0.1000E-03

     Electrostatic Setup

     electrostatic problem to solve    =              generalized
     numerical solver adopted          =                       cg
     type of auxiliary density adopted =                     none
     numerical core for poisson        =                      fft
     type of pbc corrections           =                parabolic
     numerical core for corrections    =                      1da

     celldm(1)=  12.389316  celldm(2)=   0.000000  celldm(3)=   0.000000
     celldm(4)=   0.000000  celldm(5)=   0.000000  celldm(6)=   0.000000

     crystal axes: (cart. coord. in units of alat)
               a(1) = (   1.000000   0.000000   0.000000 )
               a(2) = (   0.000000   0.904766   0.000000 )
               a(3) = (   0.000000   0.000000   3.375918 )

     reciprocal axes: (cart. coord. in units 2 pi/alat)
               b(1) = (  1.000000  0.000000  0.000000 )
               b(2) = (  0.000000  1.105258  0.000000 )
               b(3) = (  0.000000  0.000000  0.296216 )

     PseudoPot. # 1 for O  read from file:
     /gpfs/group/ixd4/default/Simon/pseudopotentials/materialscloud/SSSP_1.3.0_PBE_efficiency/O.pbe-n-kjpaw_psl.0.1.UPF
     MD5 check sum: 0234752ac141de4415c5fc33072bef88
     Pseudo is Projector augmented-wave + core cor, Zval =  6.0
     Generated using "atomic" code by A. Dal Corso  v.5.0.99 svn rev. 10869
     Shape of augmentation charge: BESSEL
     Using radial grid of 1095 points,  4 beta functions with:
                l(1) =   0
                l(2) =   0
                l(3) =   1
                l(4) =   1
     Q(r) pseudized with 0 coefficients

     PseudoPot. # 2 for Ru read from file:
     /gpfs/group/ixd4/default/Simon/pseudopotentials/materialscloud/SSSP_1.3.0_PBE_efficiency/Ru_ONCV_PBE-1.0.oncvpsp.upf
     MD5 check sum: be037bb81c227cfb9b1461a9f099f4bd
     Pseudo is Norm-conserving, Zval = 16.0
     Generated using ONCVPSP code by D. R. Hamann
     Using radial grid of 1458 points,  6 beta functions with:
                l(1) =   0
                l(2) =   0
                l(3) =   1
                l(4) =   1
                l(5) =   2
                l(6) =   2

     PseudoPot. # 3 for H  read from file:
     /gpfs/group/ixd4/default/Simon/pseudopotentials/materialscloud/SSSP_1.3.0_PBE_efficiency/H.pbe-rrkjus_psl.1.0.0.UPF
     MD5 check sum: f52b6d4d1c606e5624b1dc7b2218f220
     Pseudo is Ultrasoft, Zval =  1.0
     Generated using "atomic" code by A. Dal Corso  v.5.1
     Using radial grid of  929 points,  2 beta functions with:
                l(1) =   0
                l(2) =   0
     Q(r) pseudized with 0 coefficients

     atomic species   valence    mass     pseudopotential
        O              6.00    15.99940     O ( 1.00)
        Ru            16.00   101.07000     Ru( 1.00)
        H              1.00     1.00794     H ( 1.00)

      4 Sym. Ops. (no inversion) found

   Cartesian axes

     site n.     atom                  positions (alat units)
         1           O   tau(   1) = (   0.0000000   0.4523832   0.8804697  )
         2           O   tau(   2) = (   0.5000000   0.4523832   0.8804697  )
         3           O   tau(   3) = (   0.0000000   0.0000000   0.9930802  )
         4           O   tau(   4) = (   0.5000000   0.0000000   0.9930802  )
         5           Ru  tau(   5) = (   0.2500000   0.0000000   1.1871684  )
         6           Ru  tau(   6) = (   0.7500000   0.0000000   1.1871684  )
         7           O   tau(   7) = (   0.2500000   0.2770530   1.1871684  )
         8           O   tau(   8) = (   0.7500000   0.2770530   1.1871684  )
         9           Ru  tau(   9) = (   0.0000000   0.4523832   1.1871684  )
        10           Ru  tau(  10) = (   0.5000000   0.4523832   1.1871684  )
        11           O   tau(  11) = (   0.2500000   0.6277133   1.1871684  )
        12           O   tau(  12) = (   0.7500000   0.6277133   1.1871684  )
        13           O   tau(  13) = (   0.0000000   0.0000000   1.3812600  )
        14           O   tau(  14) = (   0.5000000   0.0000000   1.3812600  )
        15           O   tau(  15) = (   0.0000000   0.4523832   1.4938705  )
        16           O   tau(  16) = (   0.5000000   0.4523832   1.4938705  )
        17           Ru  tau(  17) = (   0.0000000   0.0000000   1.6879622  )
        18           Ru  tau(  18) = (   0.5000000   0.0000000   1.6879622  )
        19           O   tau(  19) = (   0.2500000   0.1753301   1.6879622  )
        20           O   tau(  20) = (   0.7500000   0.1753301   1.6879622  )
        21           Ru  tau(  21) = (   0.2500000   0.4523832   1.6879622  )
        22           Ru  tau(  22) = (   0.7500000   0.4523832   1.6879622  )
        23           O   tau(  23) = (   0.2500000   0.7294371   1.6879622  )
        24           O   tau(  24) = (   0.7500000   0.7294371   1.6879622  )
        25           O   tau(  25) = (   0.0000000   0.4523832   1.8820504  )
        26           O   tau(  26) = (   0.5000000   0.4523832   1.8820504  )
        27           O   tau(  27) = (   0.0000000   0.0000000   1.9946609  )
        28           O   tau(  28) = (   0.5000000   0.0000000   1.9946609  )
        29           Ru  tau(  29) = (   0.2500000   0.0000000   2.1887525  )
        30           Ru  tau(  30) = (   0.7500000   0.0000000   2.1887525  )
        31           O   tau(  31) = (   0.2500000   0.2770530   2.1887525  )
        32           O   tau(  32) = (   0.7500000   0.2770530   2.1887525  )
        33           Ru  tau(  33) = (   0.0000000   0.4523832   2.1887525  )
        34           Ru  tau(  34) = (   0.5000000   0.4523832   2.1887525  )
        35           O   tau(  35) = (   0.2500000   0.6277133   2.1887525  )
        36           O   tau(  36) = (   0.7500000   0.6277133   2.1887525  )
        37           O   tau(  37) = (   0.0000000   0.0000000   2.3828441  )
        38           O   tau(  38) = (   0.5000000   0.0000000   2.3828441  )
        39           O   tau(  39) = (   0.0000000   0.4523832   2.4954513  )
        40           O   tau(  40) = (   0.5000000   0.4523832   2.4954513  )
        41           H   tau(  41) = (   0.1176350   0.4523832   0.7660733  )
        42           H   tau(  42) = (   0.1176350   0.4523832   2.6098442  )
        43           H   tau(  43) = (   0.6176350   0.4523832   0.7660733  )
        44           H   tau(  44) = (   0.6176350   0.4523832   2.6098442  )

     number of k points=     1  Marzari-Vanderbilt smearing, width (Ry)=  0.0300
                       cart. coord. in units 2pi/alat
        k(    1) = (   0.2500000   0.2763144   0.0000000), wk =   2.0000000

     Check: negative core charge=   -0.000001

     Initial potential from superposition of free atoms

     starting charge     363.9933, renormalised to     364.0000

     add environment contribution to local potential
     Polarization accuracy = 1.6E-12, # of iterations =  21

     negative rho (up, down):  1.794E-05 0.000E+00
     Starting wfcs are  236 randomized atomic wfcs
     Checking if some PAW data can be deallocated...

     Self-consistent Calculation

     iteration #  1     ecut=    50.00 Ry     beta= 0.70
     Davidson diagonalization with overlap
     ethr =  1.00E-02,  avg # of iterations =  2.0

     negative rho (up, down):  1.447E-08 0.000E+00

     total energy              =   -3429.37472500 Ry
     estimated scf accuracy    <      11.07466033 Ry
     electrostatic embedding   =      -0.00196935 Ry
     cavitation energy         =       0.02110303 Ry
     PV energy                 =      -0.08703252 Ry
     correction to one-el term =     218.63566979 Ry

[...]

     the potential shift due to the Gaussian-smeared nuclei is    -1.3393 ev

     End of self-consistent calculation

          k = 0.2500 0.2763 0.0000 ( 34692 PWs)   bands (ev):

   -78.3918 -78.3886 -78.3794 -78.3762 -78.1803 -78.1766 -78.1677 -78.1640
   -78.0784 -78.0751 -77.9693 -77.9655 -48.8164 -48.8120 -48.8039 -48.7996
   -48.5806 -48.5764 -48.3263 -48.3232 -48.3136 -48.3106 -48.2008 -48.1917
[...]
     atom    8 type  1   force =    -0.06048145    1.06324133   63.93163417
     atom    9 type  2   force =     0.08004674   -0.00000000  170.71094361
     atom   10 type  2   force =     0.08003654   -0.00000000  170.71093300
     atom   11 type  1   force =    -0.06048048   -1.06324166   63.93162813
     atom   12 type  1   force =    -0.06048145   -1.06324133   63.93163417
     atom   13 type  1   force =     0.02300586   -0.00000000   39.04627853
     atom   14 type  1   force =     0.02300516   -0.00000000   39.04627935
     atom   15 type  1   force =     0.09856004   -0.00000000   25.52861515
     atom   16 type  1   force =     0.09855762   -0.00000000   25.52861224
     atom   17 type  2   force =     0.07524180    0.00000000   -0.00590935
     atom   18 type  2   force =     0.07524209   -0.00000000   -0.00590935
     atom   19 type  1   force =    -0.01221835   -0.16102200   -0.00248344
     atom   20 type  1   force =    -0.01221874   -0.16102311   -0.00248344
     atom   21 type  2   force =    -0.35986389   -0.00000000   -0.00606261
     atom   22 type  2   force =    -0.35986516   -0.00000000   -0.00606261
     atom   23 type  1   force =    -0.01221936    0.16067761   -0.00248344
     atom   24 type  1   force =    -0.01221975    0.16067873   -0.00248344
     atom   25 type  1   force =     0.09855224   -0.00000000  -25.53037520
     atom   26 type  1   force =     0.09854983   -0.00000000  -25.53037229
     atom   27 type  1   force =     0.02300598    0.00000000  -39.04803800
     atom   28 type  1   force =     0.02300528   -0.00000000  -39.04803882
     atom   29 type  2   force =    -0.03860757    0.00000000 -178.31426368
     atom   30 type  2   force =    -0.03860623    0.00000000 -178.31426858
     atom   31 type  1   force =    -0.06047842    1.06321562  -63.93410299
     atom   32 type  1   force =    -0.06047939    1.06321529  -63.93410902
     atom   33 type  2   force =     0.08003352   -0.00000000 -170.71678008
     atom   34 type  2   force =     0.08002332   -0.00000000 -170.71676947
     atom   35 type  1   force =    -0.06047842   -1.06321562  -63.93410299
     atom   36 type  1   force =    -0.06047939   -1.06321529  -63.93410902
     atom   37 type  1   force =     0.00324365    0.00000000  -93.76109924
     atom   38 type  1   force =     0.00323849   -0.00000000  -93.76109780
     atom   39 type  1   force =     1.13279567   -0.00000000  -96.58970547
     atom   40 type  1   force =     1.13279055   -0.00000000  -96.58970697
     atom   41 type  3   force =    -2.70505335   -0.00000000   16.67008307
     atom   42 type  3   force =    -2.70505335   -0.00000000  -16.67008307
     atom   43 type  3   force =    -2.70505272   -0.00000000   16.67008600
     atom   44 type  3   force =    -2.70505272   -0.00000000  -16.67008600
     The core correction contribution to forces
     atom    1 type  1   force =    -0.01792822   -0.00000000   -0.00320421
     atom    2 type  1   force =    -0.01792822   -0.00000000   -0.00320418
     atom    3 type  1   force =    -0.00003342   -0.00000000   -0.01074981
     atom    4 type  1   force =    -0.00003342   -0.00000000   -0.01074980
     atom    5 type  2   force =     0.00000000    0.00000000    0.00000000
     atom    6 type  2   force =     0.00000000    0.00000000    0.00000000
     atom    7 type  1   force =     0.00022664    0.00078233    0.00015321
     atom    8 type  1   force =     0.00022664    0.00078233    0.00015321
     atom    9 type  2   force =     0.00000000    0.00000000    0.00000000
     atom   10 type  2   force =     0.00000000    0.00000000    0.00000000
     atom   11 type  1   force =     0.00022664   -0.00078233    0.00015321
     atom   12 type  1   force =     0.00022664   -0.00078233    0.00015321
     atom   13 type  1   force =    -0.00000977   -0.00000000   -0.00062096
     atom   14 type  1   force =    -0.00000977   -0.00000000   -0.00062096
     atom   15 type  1   force =     0.00005988    0.00000000   -0.00027118
     atom   16 type  1   force =     0.00005988    0.00000000   -0.00027118
     atom   17 type  2   force =     0.00000000    0.00000000    0.00000000
     atom   18 type  2   force =     0.00000000    0.00000000    0.00000000
     atom   19 type  1   force =    -0.00009243   -0.00026578   -0.00000215
     atom   20 type  1   force =    -0.00009243   -0.00026578   -0.00000215
     atom   21 type  2   force =     0.00000000    0.00000000    0.00000000
     atom   22 type  2   force =     0.00000000    0.00000000    0.00000000
     atom   23 type  1   force =    -0.00009243    0.00026530   -0.00000215
     atom   24 type  1   force =    -0.00009243    0.00026530   -0.00000215
     atom   25 type  1   force =     0.00005985   -0.00000000    0.00026907
     atom   26 type  1   force =     0.00005985   -0.00000000    0.00026906
     atom   27 type  1   force =    -0.00000977   -0.00000000    0.00061850
     atom   28 type  1   force =    -0.00000977   -0.00000000    0.00061850
     atom   29 type  2   force =     0.00000000    0.00000000    0.00000000
     atom   30 type  2   force =     0.00000000    0.00000000    0.00000000
     atom   31 type  1   force =     0.00022666    0.00078218   -0.00015510
     atom   32 type  1   force =     0.00022666    0.00078218   -0.00015510
     atom   33 type  2   force =     0.00000000    0.00000000    0.00000000
     atom   34 type  2   force =     0.00000000    0.00000000    0.00000000
     atom   35 type  1   force =     0.00022666   -0.00078218   -0.00015510
     atom   36 type  1   force =     0.00022666   -0.00078218   -0.00015510
     atom   37 type  1   force =    -0.00003342   -0.00000000    0.01074507
     atom   38 type  1   force =    -0.00003342   -0.00000000    0.01074506
     atom   39 type  1   force =    -0.01792902   -0.00000000    0.00320185
     atom   40 type  1   force =    -0.01792901   -0.00000000    0.00320183
     atom   41 type  3   force =     0.00000000    0.00000000    0.00000000
     atom   42 type  3   force =     0.00000000    0.00000000    0.00000000
     atom   43 type  3   force =     0.00000000    0.00000000    0.00000000
     atom   44 type  3   force =     0.00000000    0.00000000    0.00000000
     The Hubbard contrib.    to forces
     atom    1 type  1   force =     0.00000000    0.00000000    0.00000000
     atom    2 type  1   force =     0.00000000    0.00000000    0.00000000
     atom    3 type  1   force =     0.00000000    0.00000000    0.00000000
     atom    4 type  1   force =     0.00000000    0.00000000    0.00000000
     atom    5 type  2   force =     0.00000000    0.00000000    0.00000000
     atom    6 type  2   force =     0.00000000    0.00000000    0.00000000
     atom    7 type  1   force =     0.00000000    0.00000000    0.00000000
     atom    8 type  1   force =     0.00000000    0.00000000    0.00000000
     atom    9 type  2   force =     0.00000000    0.00000000    0.00000000
     atom   10 type  2   force =     0.00000000    0.00000000    0.00000000
     atom   11 type  1   force =     0.00000000    0.00000000    0.00000000
     atom   12 type  1   force =     0.00000000    0.00000000    0.00000000
     atom   13 type  1   force =     0.00000000    0.00000000    0.00000000
     atom   14 type  1   force =     0.00000000    0.00000000    0.00000000
     atom   15 type  1   force =     0.00000000    0.00000000    0.00000000
     atom   16 type  1   force =     0.00000000    0.00000000    0.00000000
     atom   17 type  2   force =     0.00000000    0.00000000    0.00000000
     atom   18 type  2   force =     0.00000000    0.00000000    0.00000000
     atom   19 type  1   force =     0.00000000    0.00000000    0.00000000
     atom   20 type  1   force =     0.00000000    0.00000000    0.00000000
     atom   21 type  2   force =     0.00000000    0.00000000    0.00000000
     atom   22 type  2   force =     0.00000000    0.00000000    0.00000000
     atom   23 type  1   force =     0.00000000    0.00000000    0.00000000
     atom   24 type  1   force =     0.00000000    0.00000000    0.00000000
     atom   25 type  1   force =     0.00000000    0.00000000    0.00000000
     atom   26 type  1   force =     0.00000000    0.00000000    0.00000000
     atom   27 type  1   force =     0.00000000    0.00000000    0.00000000
     atom   28 type  1   force =     0.00000000    0.00000000    0.00000000
     atom   29 type  2   force =     0.00000000    0.00000000    0.00000000
     atom   30 type  2   force =     0.00000000    0.00000000    0.00000000
     atom   31 type  1   force =     0.00000000    0.00000000    0.00000000
     atom   32 type  1   force =     0.00000000    0.00000000    0.00000000
     atom   33 type  2   force =     0.00000000    0.00000000    0.00000000
     atom   34 type  2   force =     0.00000000    0.00000000    0.00000000
     atom   35 type  1   force =     0.00000000    0.00000000    0.00000000
     atom   36 type  1   force =     0.00000000    0.00000000    0.00000000
     atom   37 type  1   force =     0.00000000    0.00000000    0.00000000
     atom   38 type  1   force =     0.00000000    0.00000000    0.00000000
     atom   39 type  1   force =     0.00000000    0.00000000    0.00000000
     atom   40 type  1   force =     0.00000000    0.00000000    0.00000000
     atom   41 type  3   force =     0.00000000    0.00000000    0.00000000
     atom   42 type  3   force =     0.00000000    0.00000000    0.00000000
     atom   43 type  3   force =     0.00000000    0.00000000    0.00000000
     atom   44 type  3   force =     0.00000000    0.00000000    0.00000000
     The SCF correction term to forces
     atom    1 type  1   force =     0.00000005    0.00000000   -0.00000026
     atom    2 type  1   force =     0.00000001    0.00000000   -0.00000033
     atom    3 type  1   force =    -0.00000003    0.00000000   -0.00000033
     atom    4 type  1   force =    -0.00000001   -0.00000000   -0.00000035
     atom    5 type  2   force =     0.00000003   -0.00000000   -0.00000117
     atom    6 type  2   force =     0.00000021   -0.00000000   -0.00000105
     atom    7 type  1   force =    -0.00000010   -0.00000029   -0.00000021
     atom    8 type  1   force =     0.00000005   -0.00000029   -0.00000013
     atom    9 type  2   force =     0.00000004    0.00000000   -0.00000022
     atom   10 type  2   force =     0.00000025    0.00000000   -0.00000021
     atom   11 type  1   force =    -0.00000010    0.00000029   -0.00000021
     atom   12 type  1   force =     0.00000005    0.00000029   -0.00000013
     atom   13 type  1   force =    -0.00000008   -0.00000000   -0.00000050
     atom   14 type  1   force =     0.00000005   -0.00000000   -0.00000053
     atom   15 type  1   force =    -0.00000025    0.00000000    0.00000003
     atom   16 type  1   force =     0.00000039    0.00000000    0.00000010
     atom   17 type  2   force =    -0.00000041   -0.00000000    0.00000000
     atom   18 type  2   force =     0.00000021   -0.00000000    0.00000000
     atom   19 type  1   force =    -0.00000004    0.00000019    0.00000000
     atom   20 type  1   force =     0.00000007    0.00000054    0.00000000
     atom   21 type  2   force =    -0.00000041    0.00000000    0.00000000
     atom   22 type  2   force =    -0.00000031    0.00000000    0.00000000
     atom   23 type  1   force =    -0.00000004   -0.00000019    0.00000000
     atom   24 type  1   force =     0.00000007   -0.00000054    0.00000000
     atom   25 type  1   force =    -0.00000025    0.00000000   -0.00000002
     atom   26 type  1   force =     0.00000038    0.00000000   -0.00000010
     atom   27 type  1   force =    -0.00000008   -0.00000000    0.00000051
     atom   28 type  1   force =     0.00000005   -0.00000000    0.00000053
     atom   29 type  2   force =     0.00000003   -0.00000000    0.00000118
     atom   30 type  2   force =     0.00000021   -0.00000000    0.00000105
     atom   31 type  1   force =    -0.00000010   -0.00000029    0.00000022
     atom   32 type  1   force =     0.00000005   -0.00000029    0.00000013
     atom   33 type  2   force =     0.00000004    0.00000000    0.00000022
     atom   34 type  2   force =     0.00000025    0.00000000    0.00000021
     atom   35 type  1   force =    -0.00000010    0.00000029    0.00000022
     atom   36 type  1   force =     0.00000005    0.00000029    0.00000013
     atom   37 type  1   force =    -0.00000003   -0.00000000    0.00000033
     atom   38 type  1   force =    -0.00000001   -0.00000000    0.00000035
     atom   39 type  1   force =     0.00000005    0.00000000    0.00000025
     atom   40 type  1   force =     0.00000001    0.00000000    0.00000033
     atom   41 type  3   force =     0.00000000   -0.00000000   -0.00000005
     atom   42 type  3   force =     0.00000000   -0.00000000    0.00000005
     atom   43 type  3   force =     0.00000001   -0.00000000   -0.00000006
     atom   44 type  3   force =     0.00000001   -0.00000000    0.00000006

     Total force =     0.000047     Total SCF correction =     0.000003
     Energy error            =      2.5E-08 Ry
     Gradient error          =      9.6E-06 Ry/Bohr

     bfgs converged in  48 scf cycles and  47 bfgs steps
     (criteria: energy <  1.0E-05 Ry, force <  1.0E-05 Ry/Bohr)

     End of BFGS Geometry Optimization

     Final energy             =   -3432.6027168219 Ry

     File /storage/home/mgm6007/ixd4/Maria/Strain1_Files/RuO2-110-0-01/RuO2-110-0-01.bfgs deleted, as requested
Begin final coordinates

ATOMIC_POSITIONS (crystal)
O            -0.0108607618        0.5000000000        0.2710532600
O             0.4891390945        0.5000000000        0.2710532791
O            -0.0000302688        0.0000000000        0.3064036959
O             0.4999697058        0.0000000000        0.3064037018
Ru            0.2499298849        0.0000000000        0.3532866242
Ru            0.7499298925        0.0000000000        0.3532866238
O             0.2496377870        0.3148069105        0.3580997439
O             0.7496377843        0.3148069145        0.3580997384
Ru            0.0004528069        0.5000000000        0.3579802208
Ru            0.5004528103        0.5000000000        0.3579802294
O             0.2496377870        0.6851930895        0.3580997439
O             0.7496377843        0.6851930855        0.3580997384
O             0.0000555722        0.0000000000        0.4113678363
O             0.5000555809        0.0000000000        0.4113678420
O             0.0035043630        0.5000000000        0.4457822671
O             0.5035043543        0.5000000000        0.4457822650
Ru            0.0002754089        0.0000000000        0.5000010000
Ru            0.5002754131        0.0000000000        0.5000010000
O             0.2499105700        0.1861441665        0.5000010000
O             0.7499105749        0.1861441667        0.5000010000
Ru            0.2522682532        0.5000000000        0.5000010000
Ru            0.7522682518        0.5000000000        0.5000010000
O             0.2499105700        0.8138568335        0.5000010000
O             0.7499105749        0.8138568333        0.5000010000
O             0.0035043630        0.5000000000        0.5542187329
O             0.5035043543        0.5000000000        0.5542187350
O             0.0000555722        0.0000000000        0.5886331637
O             0.5000555809        0.0000000000        0.5886331580
Ru            0.2499298849        0.0000000000        0.6467143758
Ru            0.7499298925        0.0000000000        0.6467143762
O             0.2496377870        0.3148069105        0.6419012561
O             0.7496377843        0.3148069145        0.6419012616
Ru            0.0004528069        0.5000000000        0.6420207792
Ru            0.5004528103        0.5000000000        0.6420207706
O             0.2496377870        0.6851930895        0.6419012561
O             0.7496377843        0.6851930855        0.6419012616
O            -0.0000302688        0.0000000000        0.6935983041
O             0.4999697058        0.0000000000        0.6935982982
O            -0.0108607618        0.5000000000        0.7289477400
O             0.4891390945        0.5000000000        0.7289477209
H             0.1241256363        0.5000000000        0.2519404545
H             0.1241256363        0.5000000000        0.7480595455
H             0.6241253780        0.5000000000        0.2519404082
H             0.6241253780        0.5000000000        0.7480595918
End final coordinates

     Writing all to output data dir /storage/home/mgm6007/ixd4/Maria/Strain1_Files/RuO2-110-0-01/RuO2-110-0-01.save/

     General routines

     Parallel routines

     Environ routines

   This run was terminated on:  10:21: 4  16Jul2023

   JOB DONE.