     Program PWSCF v.7.2 starts on 18Jul2023 at 16: 6:42
        Git branch: heads/qe-7.2
        Last git commit: b4c5e8deeb7d1863e7553a87b45f8d22c21926a5
        Last git commit date: Mon Mar 27 16:12:09 2023 +0000
        Last git commit subject: Merge branch 'merge_fix_hubbard' into 'develop'

     Reading input from RuO2-110-0-012.in

     Current dimensions of program PWSCF are:
     Max number of different atomic species (ntypx) = 10
     Max number of k-points (npk) =  40000
     Max angular momentum in pseudopotentials (lmaxx) =  4

     Reading input from environ.in:
     * Environ restarting
     * setting up water environment
     * using electronic solvent mode
     * setting boundary derivatives method to SCCS default

     File /storage/home/mgm6007/ixd4/Maria/Strain1_Files/RuO2-110-0-012/RuO2-110-0-012.update deleted, as requested

     File /storage/home/mgm6007/ixd4/Maria/Strain1_Files/RuO2-110-0-012/RuO2-110-0-012.bfgs deleted, as requested
     file O.pbe-n-kjpaw_psl.0.1.UPF: wavefunction(s)  2P renormalized
     Message from routine setup:
     using ibrav=0 with symmetry is DISCOURAGED, use correct ibrav instead

     R & G space division:  proc/nbgrp/npool/nimage =      20
     Subspace diagonalization in iterative solution of the eigenvalue problem:
     one sub-group per band group will be used

     Using Slab Decomposition

     bravais-lattice index     =            0
     lattice parameter (alat)  =      12.3893  a.u.
     unit-cell volume          =    5808.5831 (a.u.)^3
     number of atoms/cell      =           46
     number of atomic types    =            3
     number of electrons       =       366.00
     number of Kohn-Sham states=          220
     kinetic-energy cutoff     =      50.0000  Ry
     charge density cutoff     =     500.0000  Ry
     scf convergence threshold =      1.0E-09
     mixing beta               =       0.7000
     number of iterations used =            8  local-TF  mixing
     energy convergence thresh.=      1.0E-04
     force convergence thresh. =      1.0E-04
     Exchange-correlation= PBE
                           (   1   4   3   4   0   0   0)
     nstep                     =          200

                                  Environ Setup Summary

          O. Andreussi, I. Dabo and N. Marzari, J. Chem. Phys. 136, 064102 (2012)

     in publications or presentations arising from this work.

     Parameters

     compensation onset threshold      =               0.1000E+00
     static permittivity               =                    78.30
     surface tension in input (dyn/cm) =                    47.90
     surface tension in internal units =               0.6153E-04
     external pressure in input (GPa)  =                    -0.36
     external pressure in inter. units =              -0.2447E-04

     Solvent Boundary

     solvent mode                      =               electronic
     derivatives method                =                    chain
     numerical core for derivatives    =                      fft
     switching function adopted        =                     SCCS
     density limit for vacuum region   =               0.5000E-02
     density limit for bulk solvent    =               0.1000E-03

     Electrostatic Setup

     electrostatic problem to solve    =              generalized
     numerical solver adopted          =                       cg
     type of auxiliary density adopted =                     none
     numerical core for poisson        =                      fft
     type of pbc corrections           =                parabolic
     numerical core for corrections    =                      1da

     celldm(1)=  12.389316  celldm(2)=   0.000000  celldm(3)=   0.000000
     celldm(4)=   0.000000  celldm(5)=   0.000000  celldm(6)=   0.000000

     crystal axes: (cart. coord. in units of alat)
               a(1) = (   1.000000   0.000000   0.000000 )
               a(2) = (   0.000000   0.904766   0.000000 )
               a(3) = (   0.000000   0.000000   3.375918 )

     reciprocal axes: (cart. coord. in units 2 pi/alat)
               b(1) = (  1.000000  0.000000  0.000000 )
               b(2) = (  0.000000  1.105258  0.000000 )
               b(3) = (  0.000000  0.000000  0.296216 )

     PseudoPot. # 1 for O  read from file:
     /gpfs/group/ixd4/default/Simon/pseudopotentials/materialscloud/SSSP_1.3.0_PBE_efficiency/O.pbe-n-kjpaw_psl.0.1.UPF
     MD5 check sum: 0234752ac141de4415c5fc33072bef88
     Pseudo is Projector augmented-wave + core cor, Zval =  6.0
     Generated using "atomic" code by A. Dal Corso  v.5.0.99 svn rev. 10869
     Shape of augmentation charge: BESSEL
     Using radial grid of 1095 points,  4 beta functions with:
                l(1) =   0
                l(2) =   0
                l(3) =   1
                l(4) =   1
     Q(r) pseudized with 0 coefficients

     PseudoPot. # 2 for Ru read from file:
     /gpfs/group/ixd4/default/Simon/pseudopotentials/materialscloud/SSSP_1.3.0_PBE_efficiency/Ru_ONCV_PBE-1.0.oncvpsp.upf
     MD5 check sum: be037bb81c227cfb9b1461a9f099f4bd
     Pseudo is Norm-conserving, Zval = 16.0
     Generated using ONCVPSP code by D. R. Hamann
     Using radial grid of 1458 points,  6 beta functions with:
                l(1) =   0
                l(2) =   0
                l(3) =   1
                l(4) =   1
                l(5) =   2
                l(6) =   2

     PseudoPot. # 3 for H  read from file:
     /gpfs/group/ixd4/default/Simon/pseudopotentials/materialscloud/SSSP_1.3.0_PBE_efficiency/H.pbe-rrkjus_psl.1.0.0.UPF
     MD5 check sum: f52b6d4d1c606e5624b1dc7b2218f220
     Pseudo is Ultrasoft, Zval =  1.0
     Generated using "atomic" code by A. Dal Corso  v.5.1
     Using radial grid of  929 points,  2 beta functions with:
                l(1) =   0
                l(2) =   0
     Q(r) pseudized with 0 coefficients

     atomic species   valence    mass     pseudopotential
        O              6.00    15.99940     O ( 1.00)
        Ru            16.00   101.07000     Ru( 1.00)
        H              1.00     1.00794     H ( 1.00)

      2 Sym. Ops. (no inversion) found

   Cartesian axes

     site n.     atom                  positions (alat units)
         1           O   tau(   1) = (  -0.0078027   0.4053303   0.9096877  )
         2           O   tau(   2) = (   0.4904820   0.4485586   0.9096349  )
         3           O   tau(   3) = (  -0.0008758   0.0093140   1.0103625  )
         4           O   tau(   4) = (   0.4998121   0.0025983   1.0402100  )
         5           Ru  tau(   5) = (   0.2567357   0.0013245   1.2012017  )
         6           Ru  tau(   6) = (   0.7426563   0.0014362   1.2013752  )
         7           O   tau(   7) = (   0.2513916   0.2855383   1.2167831  )
         8           O   tau(   8) = (   0.7480556   0.2854725   1.2132892  )
         9           Ru  tau(   9) = (  -0.0004753   0.4519776   1.2088867  )
        10           Ru  tau(  10) = (   0.4999391   0.4549032   1.2035140  )
        11           O   tau(  11) = (   0.2447335   0.6215220   1.1965683  )
        12           O   tau(  12) = (   0.7543282   0.6211832   1.1982323  )
        13           O   tau(  13) = (  -0.0002426   0.0000056   1.3883731  )
        14           O   tau(  14) = (   0.4997361  -0.0025233   1.3892561  )
        15           O   tau(  15) = (   0.0033921   0.4555213   1.5057055  )
        16           O   tau(  16) = (   0.5030650   0.4582600   1.5025742  )
        17           Ru  tau(  17) = (   0.0002090   0.0017638   1.6879622  )
        18           Ru  tau(  18) = (   0.5002233   0.0020504   1.6879622  )
        19           O   tau(  19) = (   0.2499702   0.1708234   1.6879622  )
        20           O   tau(  20) = (   0.7496974   0.1705883   1.6879622  )
        21           Ru  tau(  21) = (   0.2532526   0.4548678   1.6879622  )
        22           Ru  tau(  22) = (   0.7516579   0.4547656   1.6879622  )
        23           O   tau(  23) = (   0.2497251   0.7389232   1.6879622  )
        24           O   tau(  24) = (   0.7503818   0.7386849   1.6879622  )
        25           O   tau(  25) = (   0.0033921   0.4555213   1.8702154  )
        26           O   tau(  26) = (   0.5030650   0.4582600   1.8733468  )
        27           O   tau(  27) = (  -0.0002426   0.0000056   1.9875478  )
        28           O   tau(  28) = (   0.4997361  -0.0025233   1.9866648  )
        29           Ru  tau(  29) = (   0.2567357   0.0013245   2.1747192  )
        30           Ru  tau(  30) = (   0.7426563   0.0014362   2.1745457  )
        31           O   tau(  31) = (   0.2513916   0.2855383   2.1591379  )
        32           O   tau(  32) = (   0.7480556   0.2854725   2.1626317  )
        33           Ru  tau(  33) = (  -0.0004753   0.4519776   2.1670342  )
        34           Ru  tau(  34) = (   0.4999391   0.4549032   2.1724069  )
        35           O   tau(  35) = (   0.2447335   0.6215220   2.1793526  )
        36           O   tau(  36) = (   0.7543282   0.6211832   2.1776887  )
        37           O   tau(  37) = (  -0.0008758   0.0093140   2.3655618  )
        38           O   tau(  38) = (   0.4998121   0.0025983   2.3357143  )
        39           O   tau(  39) = (  -0.0078027   0.4053303   2.4662332  )
        40           O   tau(  40) = (   0.4904820   0.4485586   2.4662861  )
        41           H   tau(  41) = (   0.1238346   0.4372655   0.8467597  )
        42           H   tau(  42) = (   0.1238346   0.4372655   2.5291578  )
        43           H   tau(  43) = (   0.6269093   0.4425002   0.8486158  )
        44           H   tau(  44) = (   0.6269093   0.4425002   2.5273018  )
        45           H   tau(  45) = (  -0.0029635   0.1426652   0.9339765  )
        46           H   tau(  46) = (  -0.0029635   0.1426652   2.4419410  )

     number of k points=     2  Marzari-Vanderbilt smearing, width (Ry)=  0.0300
                       cart. coord. in units 2pi/alat
        k(    1) = (   0.2500000   0.2763144   0.0000000), wk =   1.0000000
        k(    2) = (  -0.2500000   0.2763144   0.0000000), wk =   1.0000000

     Check: negative core charge=   -0.000001

     Initial potential from superposition of free atoms

     starting charge     365.9933, renormalised to     366.0000

     add environment contribution to local potential
     Polarization accuracy = 5.9E-12, # of iterations =  24

     negative rho (up, down):  2.853E-05 0.000E+00
     Starting wfcs are  238 randomized atomic wfcs
     Checking if some PAW data can be deallocated...

     Self-consistent Calculation

     iteration #  1     ecut=    50.00 Ry     beta= 0.70
     Davidson diagonalization with overlap
     ethr =  1.00E-02,  avg # of iterations =  2.0

     total energy              =   -3432.80315398 Ry
     estimated scf accuracy    <       9.39042139 Ry
     electrostatic embedding   =      -0.00181357 Ry
     cavitation energy         =       0.01954853 Ry
     PV energy                 =      -0.08397685 Ry
     correction to one-el term =     221.37854280 Ry

[...]

     negative rho (up, down):  9.050E-05 0.000E+00

[...]

     the potential shift due to the Gaussian-smeared nuclei is    -1.3466 ev

[...]
     atom   18 type  2   force =     0.05380338   -0.35508324   -0.00587403
     atom   19 type  1   force =     0.11703769   -0.36212109   -0.00247419
     atom   20 type  1   force =    -0.12669481   -0.41310045   -0.00247560
     atom   21 type  2   force =    -0.33982192    0.06952860   -0.00605868
     atom   22 type  2   force =    -0.23139050    0.16468321   -0.00606247
     atom   23 type  1   force =     0.16116285    0.39798775   -0.00248057
     atom   24 type  1   force =    -0.13808174    0.37764203   -0.00248054
     atom   25 type  1   force =     0.08138117   -0.20051783  -25.49830613
     atom   26 type  1   force =     0.01730770   -0.20035077  -25.90907654
     atom   27 type  1   force =     0.00658197    0.34891692  -39.75593738
     atom   28 type  1   force =     0.00414701    0.30732338  -37.98748920
     atom   29 type  2   force =     3.53472266    1.09115125 -174.95324191
     atom   30 type  2   force =    -3.48145437    1.21403082 -174.79930171
     atom   31 type  1   force =     0.16683030    0.66742561  -61.90877822
     atom   32 type  1   force =    -0.14955222    0.65965323  -62.67482224
     atom   33 type  2   force =     0.01501383   -1.98889744 -170.39775062
     atom   34 type  2   force =     0.00533701   -1.15468824 -172.06144932
     atom   35 type  1   force =     0.42719560   -0.99923244  -66.70168436
     atom   36 type  1   force =    -0.44907314   -1.07093785  -66.48917470
     atom   37 type  1   force =    -0.07454984    2.26080656  -92.42076331
     atom   38 type  1   force =     0.00871306    0.24608238  -94.16311024
     atom   39 type  1   force =     1.10892889   -0.15904046  -95.65435208
     atom   40 type  1   force =     1.10406773   -0.18091506  -96.48877798
     atom   41 type  3   force =    -2.68075732   -0.77849817   16.58553365
     atom   42 type  3   force =    -2.68075732   -0.77849817  -16.58553365
     atom   43 type  3   force =    -2.73370689    0.11233799   16.60430613
     atom   44 type  3   force =    -2.73370689    0.11233799  -16.60430613
     atom   45 type  3   force =     0.03173583   -1.56975318   16.90907129
     atom   46 type  3   force =     0.03173583   -1.56975318  -16.90907129
     The core correction contribution to forces
     atom    1 type  1   force =    -0.01699237   -0.00343435   -0.00290558
     atom    2 type  1   force =    -0.01791998    0.00079025   -0.00330063
     atom    3 type  1   force =     0.00018003   -0.01367014   -0.00214158
     atom    4 type  1   force =    -0.00002137   -0.00003084   -0.01093867
     atom    5 type  2   force =     0.00000000    0.00000000    0.00000000
     atom    6 type  2   force =     0.00000000    0.00000000    0.00000000
     atom    7 type  1   force =    -0.00021811    0.00078384    0.00085177
     atom    8 type  1   force =     0.00049173    0.00081391    0.00071209
     atom    9 type  2   force =     0.00000000    0.00000000    0.00000000
     atom   10 type  2   force =     0.00000000    0.00000000    0.00000000
     atom   11 type  1   force =     0.00012611   -0.00064154   -0.00078376
     atom   12 type  1   force =     0.00014421   -0.00053732   -0.00080705
     atom   13 type  1   force =     0.00002268    0.00003638   -0.00132965
     atom   14 type  1   force =     0.00004306   -0.00052498    0.00036847
     atom   15 type  1   force =     0.00014960    0.00036845    0.00024826
     atom   16 type  1   force =     0.00004137    0.00018746   -0.00054204
     atom   17 type  2   force =     0.00000000    0.00000000    0.00000000
     atom   18 type  2   force =     0.00000000    0.00000000    0.00000000
     atom   19 type  1   force =    -0.00028871   -0.00031993   -0.00000213
     atom   20 type  1   force =     0.00003205   -0.00035059   -0.00000214
     atom   21 type  2   force =     0.00000000    0.00000000    0.00000000
     atom   22 type  2   force =     0.00000000    0.00000000    0.00000000
     atom   23 type  1   force =    -0.00014555    0.00032664   -0.00000208
     atom   24 type  1   force =    -0.00010723    0.00029478   -0.00000209
     atom   25 type  1   force =     0.00014956    0.00036865   -0.00025049
     atom   26 type  1   force =     0.00004135    0.00018750    0.00053991
     atom   27 type  1   force =     0.00002268    0.00003638    0.00132735
     atom   28 type  1   force =     0.00004307   -0.00052505   -0.00037087
     atom   29 type  2   force =     0.00000000    0.00000000    0.00000000
     atom   30 type  2   force =     0.00000000    0.00000000    0.00000000
     atom   31 type  1   force =    -0.00021805    0.00078384   -0.00085365
     atom   32 type  1   force =     0.00049170    0.00081391   -0.00071405
     atom   33 type  2   force =     0.00000000    0.00000000    0.00000000
     atom   34 type  2   force =     0.00000000    0.00000000    0.00000000
     atom   35 type  1   force =     0.00012624   -0.00064151    0.00078169
     atom   36 type  1   force =     0.00014414   -0.00053731    0.00080503
     atom   37 type  1   force =     0.00018004   -0.01367196    0.00213790
     atom   38 type  1   force =    -0.00002138   -0.00003096    0.01093428
     atom   39 type  1   force =    -0.01699310   -0.00343446    0.00290302
     atom   40 type  1   force =    -0.01792078    0.00079028    0.00329828
     atom   41 type  3   force =     0.00000000    0.00000000    0.00000000
     atom   42 type  3   force =     0.00000000    0.00000000    0.00000000
     atom   43 type  3   force =     0.00000000    0.00000000    0.00000000
     atom   44 type  3   force =     0.00000000    0.00000000    0.00000000
     atom   45 type  3   force =     0.00000000    0.00000000    0.00000000
     atom   46 type  3   force =     0.00000000    0.00000000    0.00000000
     The Hubbard contrib.    to forces
     atom    1 type  1   force =     0.00000000    0.00000000    0.00000000
     atom    2 type  1   force =     0.00000000    0.00000000    0.00000000
     atom    3 type  1   force =     0.00000000    0.00000000    0.00000000
     atom    4 type  1   force =     0.00000000    0.00000000    0.00000000
     atom    5 type  2   force =     0.00000000    0.00000000    0.00000000
     atom    6 type  2   force =     0.00000000    0.00000000    0.00000000
     atom    7 type  1   force =     0.00000000    0.00000000    0.00000000
     atom    8 type  1   force =     0.00000000    0.00000000    0.00000000
     atom    9 type  2   force =     0.00000000    0.00000000    0.00000000
     atom   10 type  2   force =     0.00000000    0.00000000    0.00000000
     atom   11 type  1   force =     0.00000000    0.00000000    0.00000000
     atom   12 type  1   force =     0.00000000    0.00000000    0.00000000
     atom   13 type  1   force =     0.00000000    0.00000000    0.00000000
     atom   14 type  1   force =     0.00000000    0.00000000    0.00000000
     atom   15 type  1   force =     0.00000000    0.00000000    0.00000000
     atom   16 type  1   force =     0.00000000    0.00000000    0.00000000
     atom   17 type  2   force =     0.00000000    0.00000000    0.00000000
     atom   18 type  2   force =     0.00000000    0.00000000    0.00000000
     atom   19 type  1   force =     0.00000000    0.00000000    0.00000000
     atom   20 type  1   force =     0.00000000    0.00000000    0.00000000
     atom   21 type  2   force =     0.00000000    0.00000000    0.00000000
     atom   22 type  2   force =     0.00000000    0.00000000    0.00000000
     atom   23 type  1   force =     0.00000000    0.00000000    0.00000000
     atom   24 type  1   force =     0.00000000    0.00000000    0.00000000
     atom   25 type  1   force =     0.00000000    0.00000000    0.00000000
     atom   26 type  1   force =     0.00000000    0.00000000    0.00000000
     atom   27 type  1   force =     0.00000000    0.00000000    0.00000000
     atom   28 type  1   force =     0.00000000    0.00000000    0.00000000
     atom   29 type  2   force =     0.00000000    0.00000000    0.00000000
     atom   30 type  2   force =     0.00000000    0.00000000    0.00000000
     atom   31 type  1   force =     0.00000000    0.00000000    0.00000000
     atom   32 type  1   force =     0.00000000    0.00000000    0.00000000
     atom   33 type  2   force =     0.00000000    0.00000000    0.00000000
     atom   34 type  2   force =     0.00000000    0.00000000    0.00000000
     atom   35 type  1   force =     0.00000000    0.00000000    0.00000000
     atom   36 type  1   force =     0.00000000    0.00000000    0.00000000
     atom   37 type  1   force =     0.00000000    0.00000000    0.00000000
     atom   38 type  1   force =     0.00000000    0.00000000    0.00000000
     atom   39 type  1   force =     0.00000000    0.00000000    0.00000000
     atom   40 type  1   force =     0.00000000    0.00000000    0.00000000
     atom   41 type  3   force =     0.00000000    0.00000000    0.00000000
     atom   42 type  3   force =     0.00000000    0.00000000    0.00000000
     atom   43 type  3   force =     0.00000000    0.00000000    0.00000000
     atom   44 type  3   force =     0.00000000    0.00000000    0.00000000
     atom   45 type  3   force =     0.00000000    0.00000000    0.00000000
     atom   46 type  3   force =     0.00000000    0.00000000    0.00000000
     The SCF correction term to forces
     atom    1 type  1   force =     0.00000009    0.00000048   -0.00000223
     atom    2 type  1   force =    -0.00000038    0.00000095   -0.00000143
     atom    3 type  1   force =    -0.00000002   -0.00000009   -0.00000221
     atom    4 type  1   force =     0.00000003   -0.00000052   -0.00000197
     atom    5 type  2   force =     0.00000001   -0.00000098   -0.00000418
     atom    6 type  2   force =    -0.00000031   -0.00000079   -0.00000560
     atom    7 type  1   force =    -0.00000040    0.00000030   -0.00000097
     atom    8 type  1   force =     0.00000017    0.00000042   -0.00000202
     atom    9 type  2   force =     0.00000041    0.00000046   -0.00000578
     atom   10 type  2   force =    -0.00000031    0.00000068   -0.00000429
     atom   11 type  1   force =    -0.00000026    0.00000024   -0.00000166
     atom   12 type  1   force =     0.00000027   -0.00000007   -0.00000220
     atom   13 type  1   force =     0.00000047   -0.00000017   -0.00000097
     atom   14 type  1   force =    -0.00000042   -0.00000024   -0.00000051
     atom   15 type  1   force =     0.00000112    0.00000018   -0.00000086
     atom   16 type  1   force =    -0.00000144   -0.00000001   -0.00000084
     atom   17 type  2   force =     0.00000100   -0.00000011    0.00000002
     atom   18 type  2   force =    -0.00000161   -0.00000003    0.00000002
     atom   19 type  1   force =     0.00000078    0.00000014    0.00000001
     atom   20 type  1   force =    -0.00000037   -0.00000145    0.00000001
     atom   21 type  2   force =     0.00000031    0.00000004    0.00000002
     atom   22 type  2   force =     0.00000014    0.00000015    0.00000002
     atom   23 type  1   force =     0.00000077   -0.00000017    0.00000001
     atom   24 type  1   force =    -0.00000029    0.00000129    0.00000001
     atom   25 type  1   force =     0.00000112    0.00000019    0.00000087
     atom   26 type  1   force =    -0.00000144   -0.00000000    0.00000085
     atom   27 type  1   force =     0.00000047   -0.00000017    0.00000098
     atom   28 type  1   force =    -0.00000042   -0.00000024    0.00000052
     atom   29 type  2   force =     0.00000001   -0.00000098    0.00000420
     atom   30 type  2   force =    -0.00000031   -0.00000079    0.00000562
     atom   31 type  1   force =    -0.00000040    0.00000030    0.00000098
     atom   32 type  1   force =     0.00000017    0.00000042    0.00000202
     atom   33 type  2   force =     0.00000041    0.00000046    0.00000580
     atom   34 type  2   force =    -0.00000031    0.00000068    0.00000430
     atom   35 type  1   force =    -0.00000026    0.00000024    0.00000166
     atom   36 type  1   force =     0.00000027   -0.00000007    0.00000221
     atom   37 type  1   force =    -0.00000002   -0.00000009    0.00000220
     atom   38 type  1   force =     0.00000003   -0.00000052    0.00000196
     atom   39 type  1   force =     0.00000009    0.00000048    0.00000222
     atom   40 type  1   force =    -0.00000038    0.00000095    0.00000142
     atom   41 type  3   force =    -0.00000014    0.00000003   -0.00000026
     atom   42 type  3   force =    -0.00000014    0.00000003    0.00000026
     atom   43 type  3   force =     0.00000010    0.00000007   -0.00000029
     atom   44 type  3   force =     0.00000010    0.00000007    0.00000029
     atom   45 type  3   force =    -0.00000002    0.00000002   -0.00000034
     atom   46 type  3   force =    -0.00000002    0.00000002    0.00000034

     Total force =     0.000335     Total SCF correction =     0.000017
     Energy error            =      6.7E-08 Ry
     Gradient error          =      8.9E-05 Ry/Bohr

     bfgs converged in  28 scf cycles and  27 bfgs steps
     (criteria: energy <  1.0E-04 Ry, force <  1.0E-04 Ry/Bohr)

     End of BFGS Geometry Optimization

     Final energy             =   -3435.1557468583 Ry

     File /storage/home/mgm6007/ixd4/Maria/Strain1_Files/RuO2-110-0-012/RuO2-110-0-012.bfgs deleted, as requested
Begin final coordinates

ATOMIC_POSITIONS (crystal)
O            -0.0066255841        0.4482487566        0.2695074593
O             0.4895294779        0.4938894706        0.2694524395
O            -0.0008057916        0.0102668210        0.2992724278
O             0.4997645858        0.0032101039        0.3081294700
Ru            0.2567776379        0.0016916329        0.3558416976
Ru            0.7427173804        0.0017588000        0.3558492399
O             0.2514121405        0.3157692307        0.3606489990
O             0.7482613405        0.3157088323        0.3594415074
Ru           -0.0003308953        0.4998186508        0.3581011619
Ru            0.5000414394        0.5029109189        0.3564934973
O             0.2449608749        0.6871671847        0.3543750249
O             0.7542876702        0.6867073991        0.3547567437
O            -0.0003803571       -0.0000109997        0.4112547167
O             0.4997747406       -0.0024232449        0.4115065627
O             0.0033163296        0.5041783420        0.4460158865
O             0.5030549381        0.5070774325        0.4450694995
Ru           -0.0001292315        0.0024552121        0.5000010000
Ru            0.4999217708        0.0028417018        0.5000010000
O             0.2495307547        0.1893790436        0.5000010000
O             0.7493400416        0.1891519513        0.5000010000
Ru            0.2532407229        0.5033260494        0.5000010000
Ru            0.7515719786        0.5032407063        0.5000010000
O             0.2493339056        0.8172671807        0.5000010000
O             0.7499886850        0.8170226219        0.5000010000
O             0.0033163296        0.5041783420        0.5539851135
O             0.5030549381        0.5070774325        0.5549315005
O            -0.0003803571       -0.0000109997        0.5887462833
O             0.4997747406       -0.0024232449        0.5884944373
Ru            0.2567776379        0.0016916329        0.6441593024
Ru            0.7427173804        0.0017588000        0.6441517601
O             0.2514121405        0.3157692307        0.6393520010
O             0.7482613405        0.3157088323        0.6405594926
Ru           -0.0003308953        0.4998186508        0.6418998381
Ru            0.5000414394        0.5029109189        0.6435075027
O             0.2449608749        0.6871671847        0.6456259751
O             0.7542876702        0.6867073991        0.6452442563
O            -0.0008057916        0.0102668210        0.7007295722
O             0.4997645858        0.0032101039        0.6918725300
O            -0.0066255841        0.4482487566        0.7304935407
O             0.4895294779        0.4938894706        0.7305485605
H             0.1255874320        0.4831683678        0.2511567496
H             0.1255874320        0.4831683678        0.7488432504
H             0.6254339936        0.4852260758        0.2511197031
H             0.6254339936        0.4852260758        0.7488802969
H            -0.0029066672        0.1575109913        0.2766112325
H            -0.0029066672        0.1575109913        0.7233887675
End final coordinates

     Writing all to output data dir /storage/home/mgm6007/ixd4/Maria/Strain1_Files/RuO2-110-0-012/RuO2-110-0-012.save/

     General routines

     Parallel routines

     Environ routines

   This run was terminated on:   1: 6:26  20Jul2023

   JOB DONE.